86

C           1.9165316       0.4201284       0.7958012
C          -0.4313183      -1.6637783       0.5697405
C          -1.0698818       1.4141484       0.5848637
C           3.3226158       1.4205058       3.2248324
C           3.6790372       1.2192812       4.7065001
C           4.5571020       1.7301372       2.3683443
C           3.0426395      -1.6096999       2.6190932
C           3.0938737      -2.2123057       4.0329589
C           4.4058558      -1.6925921       1.9209135
C          -0.4029025      -3.6029674       2.8247679
C          -0.6757091      -3.9016775       4.3077651
C          -0.8120635      -4.7664620       1.9126895
C          -2.8975526      -1.8340862       2.2337290
C          -3.5189270      -1.9574477       3.6353256
C          -3.5908276      -2.7588639       1.2253190
C          -2.8151530       2.5517064       2.8353347
C          -3.8999339       2.3081644       1.7814325
C          -3.2240958       2.0195117       4.2170383
C          -0.0021548       3.4374724       2.4759768
C          -0.4321649       4.6008697       1.5742256
C           0.1557842       3.8722978       3.9416930
C           0.2996489       0.1151341      -1.8341731
C          -0.8318985      -0.2186496      -2.6083312
C          -0.7954360      -0.1753486      -4.0037294
C           0.3795663       0.2054236      -4.6601122
C           1.5119710       0.5431559      -3.9148403
C           1.4703411       0.4986518      -2.5176119
Fe         -0.0873850      -0.0029802       3.6695642
Cl          0.0092384      -0.0500369       5.8832847
P          -1.0910680       1.9058864       2.3770468
Si          0.1926366       0.0718856       0.0462133
P           2.1733701       0.0608277       2.6102553
P          -1.0189705      -1.8982668       2.3219279
H           2.1265013       1.4907584       0.6316362
H           2.6750310      -0.1230812       0.2081505
H          -1.2103215      -1.9881933      -0.1389516
H           0.4128749      -2.3555102       0.4043008
H          -2.0650645       1.0153800       0.3286756
H          -0.9349079       2.3005924      -0.0565224
H           2.7992122       0.9645497       5.3168757
H           4.1160323       2.1462498       5.1107454
H           4.4303335       0.4256694       4.8372474
H           4.3189121       1.8655939       1.3024328
H           5.0170950       2.6678999       2.7205712
H           5.3219689       0.9454054       2.4480652
H           2.3273285      -2.2085989       2.0257111
H           2.1446699      -2.0961268       4.5770461
H           3.3298803      -3.2870278       3.9744821
H           3.8789055      -1.7417009       4.6425973
H           4.4118648      -1.2318857       0.9213887
H           4.6895261      -2.7500618       1.7939478
H           5.1957645      -1.2169327       2.5198712
H           0.6867609      -3.4567545       2.7165968
H          -0.4335737      -3.0501812       4.9621060
H          -1.7273197      -4.1739479       4.4808281
H          -0.0637760      -4.7596925       4.6285799
H          -0.6480900      -4.5539652       0.8452484
H          -1.8685465      -5.0386001       2.0489385
H          -0.2139497      -5.6569718       2.1656973
H          -3.0497555      -0.7928898       1.8945148
H          -2.9822765      -1.3631841       4.3910178
H          -4.5652866      -1.6139199       3.6127133
H          -3.5296110      -3.0020754       3.9791201
H          -3.1561117      -2.7049535       0.2158736
H          -4.6516267      -2.4728586       1.1371685
H          -3.5645164      -3.8087799       1.5491926
H          -2.6735536       3.6413096       2.9181394
H          -3.6599176       2.7675897       0.8111652
H          -4.8492184       2.7478290       2.1274156
H          -4.0875642       1.2339679       1.6174009
H          -2.4391865       2.1598947       4.9753655
H          -4.1292834       2.5405046       4.5683161
H          -3.4559559       0.9437089       4.1801437
H           0.9751599       3.0723207       2.1173930
H          -0.5030589       4.3188491       0.5128268
H          -1.4012591       5.0257189       1.8794797
H           0.3092799       5.4132175       1.6444454
H           0.4634011       3.0415759       4.5959940
H          -0.7834254       4.2832400       4.3455362
H           0.9138292       4.6678889       4.0196448
H          -1.7664693      -0.5188823      -2.1225422
H          -1.6845582      -0.4396632      -4.5815150
H           0.4112622       0.2385847      -5.7518568
H           2.4324348       0.8422372      -4.4222577
H           2.3719747       0.7706222      -1.9621388
H           2.6490450       2.2942546       3.1693761