 Entering Gaussian System, Link 0=g16
 Initial command:
 /opt/gaussian16/g16/l1.exe "/data/tmp/Gau-1236340.inp" -scrdir="/data/tmp/"
 Default is to use a total of  24 processors:
                               24 via shared-memory
                                1 via Linda
 Entering Link 1 = /opt/gaussian16/g16/l1.exe PID=   1236342.
  
 Copyright (c) 1988,1990,1992,1993,1995,1998,2003,2009,2016,
            Gaussian, Inc.  All Rights Reserved.
  
 This is part of the Gaussian(R) 16 program.  It is based on
 the Gaussian(R) 09 system (copyright 2009, Gaussian, Inc.),
 the Gaussian(R) 03 system (copyright 2003, Gaussian, Inc.),
 the Gaussian(R) 98 system (copyright 1998, Gaussian, Inc.),
 the Gaussian(R) 94 system (copyright 1995, Gaussian, Inc.),
 the Gaussian 92(TM) system (copyright 1992, Gaussian, Inc.),
 the Gaussian 90(TM) system (copyright 1990, Gaussian, Inc.),
 the Gaussian 88(TM) system (copyright 1988, Gaussian, Inc.),
 the Gaussian 86(TM) system (copyright 1986, Carnegie Mellon
 University), and the Gaussian 82(TM) system (copyright 1983,
 Carnegie Mellon University). Gaussian is a federally registered
 trademark of Gaussian, Inc.
  
 This software contains proprietary and confidential information,
 including trade secrets, belonging to Gaussian, Inc.
  
 This software is provided under written license and may be
 used, copied, transmitted, or stored only in accord with that
 written license.
  
 The following legend is applicable only to US Government
 contracts under FAR:
  
                    RESTRICTED RIGHTS LEGEND
  
 Use, reproduction and disclosure by the US Government is
 subject to restrictions as set forth in subparagraphs (a)
 and (c) of the Commercial Computer Software - Restricted
 Rights clause in FAR 52.227-19.
  
 Gaussian, Inc.
 340 Quinnipiac St., Bldg. 40, Wallingford CT 06492
  
  
 ---------------------------------------------------------------
 Warning -- This program may not be used in any manner that
 competes with the business of Gaussian, Inc. or will provide
 assistance to any competitor of Gaussian, Inc.  The licensee
 of this program is prohibited from giving any competitor of
 Gaussian, Inc. access to this program.  By using this program,
 the user acknowledges that Gaussian, Inc. is engaged in the
 business of creating and licensing software in the field of
 computational chemistry and represents and warrants to the
 licensee that it is not a competitor of Gaussian, Inc. and that
 it will not use this program in any manner prohibited above.
 ---------------------------------------------------------------
  

 Cite this work as:
 Gaussian 16, Revision A.03,
 M. J. Frisch, G. W. Trucks, H. B. Schlegel, G. E. Scuseria, 
 M. A. Robb, J. R. Cheeseman, G. Scalmani, V. Barone, 
 G. A. Petersson, H. Nakatsuji, X. Li, M. Caricato, A. V. Marenich, 
 J. Bloino, B. G. Janesko, R. Gomperts, B. Mennucci, H. P. Hratchian, 
 J. V. Ortiz, A. F. Izmaylov, J. L. Sonnenberg, D. Williams-Young, 
 F. Ding, F. Lipparini, F. Egidi, J. Goings, B. Peng, A. Petrone, 
 T. Henderson, D. Ranasinghe, V. G. Zakrzewski, J. Gao, N. Rega, 
 G. Zheng, W. Liang, M. Hada, M. Ehara, K. Toyota, R. Fukuda, 
 J. Hasegawa, M. Ishida, T. Nakajima, Y. Honda, O. Kitao, H. Nakai, 
 T. Vreven, K. Throssell, J. A. Montgomery, Jr., J. E. Peralta, 
 F. Ogliaro, M. J. Bearpark, J. J. Heyd, E. N. Brothers, K. N. Kudin, 
 V. N. Staroverov, T. A. Keith, R. Kobayashi, J. Normand, 
 K. Raghavachari, A. P. Rendell, J. C. Burant, S. S. Iyengar, 
 J. Tomasi, M. Cossi, J. M. Millam, M. Klene, C. Adamo, R. Cammi, 
 J. W. Ochterski, R. L. Martin, K. Morokuma, O. Farkas, 
 J. B. Foresman, and D. J. Fox, Gaussian, Inc., Wallingford CT, 2016.
 
 ******************************************
 Gaussian 16:  ES64L-G16RevA.03 25-Dec-2016
                30-Aug-2024 
 ******************************************
 %oldchk=../../opt/ni1_symm_d2h_opt_sextet_b3lyp.chk
 %chk=ni1_symm_d2h_opt_sextet_b3lyp_hf_tpssh.chk
 Copying data from "../../opt/ni1_symm_d2h_opt_sextet_b3lyp.chk" to current chk file "ni1_symm_d2h_opt_sextet_b3lyp_hf_tpssh.chk"
 IOpt=  2 FromEx=T IUOpen= 4 IOptOp= 5 NList=   0 IFRang= 0 IUIn= 4 IUOut= 2.
 ----------------------------------------------------------------------
 #p prop=epr geom=allcheck tpssh/6-311g** int=grid=ultrafine scf=(xqc,m
 axcycle=500,IntRep) SCRF(CPCM, SOLVENT=ACETONITRILE)
 ----------------------------------------------------------------------
 1/29=7,30=1,38=1,172=1/1;
 2/12=2,40=1/2;
 3/5=4,6=6,7=101,11=2,14=-4,25=1,30=1,70=2101,72=2,74=-35,75=-5/1,2,3;
 4//1;
 5/5=2,7=500,8=3,13=1,17=20,38=5,53=2/2,8;
 6/7=2,8=2,9=2,10=2,17=2,22=-1,26=4,28=1,82=1/1,2;
 99/5=1,9=1/99;
 Leave Link    1 at Fri Aug 30 17:01:56 2024, MaxMem= 11953766400 cpu:               6.5 elap:               0.3
 (Enter /opt/gaussian16/g16/l101.exe)
 Structure from the checkpoint file:  "ni1_symm_d2h_opt_sextet_b3lyp_hf_tpssh.chk"
 ----------------------------------------------------------------------
 DFT B3LYP/6-31g**/D3BJ optimisation of {Ni2}3+ - once reduced xrd cati
 on sextet - symmetrised to d2h
 ----------------------------------------------------------------------
 Charge =  3 Multiplicity = 6
 Redundant internal coordinates found in file.  (old form).
 Ni,0,3.3400691493,0.,0.
 N,0,2.7792971141,0.,2.256316833
 N,0,3.7483562054,2.0519090752,0.
 N,0,2.7792971141,0.,-2.256316833
 N,0,5.3302392913,0.,0.
 C,0,-0.7321004332,0.,3.619438055
 C,0,0.6921197627,0.,-1.1586635421
 N,0,1.3900344109,0.,0.
 C,0,1.4237633028,0.,2.3820656265
 C,0,5.9724329894,1.1739597749,0.
 C,0,1.5375036441,0.,-4.7710029969
 H,0,1.092704495,0.,-5.7574343755
 C,0,0.7321004332,0.,3.619438055
 N,0,3.7483562054,-2.0519090752,0.
 C,0,1.4237633028,0.,-2.3820656265
 C,0,5.0679289928,2.349482906,0.
 C,0,7.3654378619,1.2091252156,0.
 H,0,7.9032527599,2.1461330296,0.
 C,0,5.9724329894,-1.1739597749,0.
 C,0,5.5119269469,3.6676587122,0.
 H,0,6.5687217069,3.8939463531,0.
 C,0,4.5725986306,4.694419429,0.
 H,0,4.8975956335,5.7269013469,0.
 C,0,2.8502430401,3.0377845737,0.
 H,0,1.8098186464,2.7373090351,0.
 C,0,1.5375036441,0.,4.7710029969
 H,0,1.092704495,0.,5.7574343755
 C,0,8.0557916065,0.,0.
 H,0,9.1380591162,0.,0.
 C,0,3.2188943752,4.3784455769,0.
 H,0,2.4593769677,5.1482979056,0.
 C,0,0.6921197627,0.,1.1586635421
 C,0,3.5009100896,0.,3.369098254
 H,0,4.5782726062,0.,3.2502000144
 C,0,7.3654378619,-1.2091252156,0.
 H,0,7.9032527599,-2.1461330296,0.
 C,0,3.5009100896,0.,-3.369098254
 H,0,4.5782726062,0.,-3.2502000144
 C,0,5.0679289928,-2.349482906,0.
 C,0,2.9165458205,0.,4.6447995197
 H,0,3.5507840494,0.,5.520844421
 C,0,2.9165458205,0.,-4.6447995197
 H,0,3.5507840494,0.,-5.520844421
 C,0,5.5119269469,-3.6676587122,0.
 H,0,6.5687217069,-3.8939463531,0.
 C,0,2.8502430401,-3.0377845737,0.
 H,0,1.8098186464,-2.7373090351,0.
 C,0,3.2188943752,-4.3784455769,0.
 H,0,2.4593769677,-5.1482979056,0.
 C,0,4.5725986306,-4.694419429,0.
 H,0,4.8975956335,-5.7269013469,0.
 N,0,-2.7792971141,0.,-2.256316833
 N,0,-2.7792971141,0.,2.256316833
 C,0,0.7321004332,0.,-3.619438055
 C,0,-0.6921197627,0.,1.1586635421
 N,0,-1.3900344109,0.,0.
 C,0,-1.4237633028,0.,-2.3820656265
 C,0,-1.5375036441,0.,4.7710029969
 H,0,-1.092704495,0.,5.7574343755
 C,0,-0.7321004332,0.,-3.619438055
 C,0,-1.4237633028,0.,2.3820656265
 C,0,-1.5375036441,0.,-4.7710029969
 H,0,-1.092704495,0.,-5.7574343755
 C,0,-0.6921197627,0.,-1.1586635421
 C,0,-3.5009100896,0.,-3.369098254
 H,0,-4.5782726062,0.,-3.2502000144
 C,0,-3.5009100896,0.,3.369098254
 H,0,-4.5782726062,0.,3.2502000144
 C,0,-2.9165458205,0.,-4.6447995197
 H,0,-3.5507840494,0.,-5.520844421
 C,0,-2.9165458205,0.,4.6447995197
 H,0,-3.5507840494,0.,5.520844421
 Ni,0,-3.3400691493,0.,0.
 N,0,-3.7483562054,2.0519090752,0.
 N,0,-5.3302392913,0.,0.
 C,0,-5.9724329894,1.1739597749,0.
 N,0,-3.7483562054,-2.0519090752,0.
 C,0,-5.0679289928,2.349482906,0.
 C,0,-7.3654378619,1.2091252156,0.
 H,0,-7.9032527599,2.1461330296,0.
 C,0,-5.9724329894,-1.1739597749,0.
 C,0,-5.5119269469,3.6676587122,0.
 H,0,-6.5687217069,3.8939463531,0.
 C,0,-4.5725986306,4.694419429,0.
 H,0,-4.8975956335,5.7269013469,0.
 C,0,-2.8502430401,3.0377845737,0.
 H,0,-1.8098186464,2.7373090351,0.
 C,0,-8.0557916065,0.,0.
 H,0,-9.1380591162,0.,0.
 C,0,-3.2188943752,4.3784455769,0.
 H,0,-2.4593769677,5.1482979056,0.
 C,0,-7.3654378619,-1.2091252156,0.
 H,0,-7.9032527599,-2.1461330296,0.
 C,0,-5.0679289928,-2.349482906,0.
 C,0,-5.5119269469,-3.6676587122,0.
 H,0,-6.5687217069,-3.8939463531,0.
 C,0,-2.8502430401,-3.0377845737,0.
 H,0,-1.8098186464,-2.7373090351,0.
 C,0,-3.2188943752,-4.3784455769,0.
 H,0,-2.4593769677,-5.1482979056,0.
 C,0,-4.5725986306,-4.694419429,0.
 H,0,-4.8975956335,-5.7269013469,0.
 Recover connectivity data from disk.
 ITRead=  0  0  0  0  0  0  0  0  0  0  0  0  0  0  0  0  0  0  0  0
 ITRead=  0  0  0  0  0  0  0  0  0  0  0  0  0  0  0  0  0  0  0  0
 ITRead=  0  0  0  0  0  0  0  0  0  0  0  0  0  0  0  0  0  0  0  0
 ITRead=  0  0  0  0  0  0  0  0  0  0  0  0  0  0  0  0  0  0  0  0
 ITRead=  0  0  0  0  0  0  0  0  0  0  0  0  0  0  0  0  0  0  0  0
 ITRead=  0  0
 MicOpt= -1 -1 -1 -1 -1 -1 -1 -1 -1 -1 -1 -1 -1 -1 -1 -1 -1 -1 -1 -1
 MicOpt= -1 -1 -1 -1 -1 -1 -1 -1 -1 -1 -1 -1 -1 -1 -1 -1 -1 -1 -1 -1
 MicOpt= -1 -1 -1 -1 -1 -1 -1 -1 -1 -1 -1 -1 -1 -1 -1 -1 -1 -1 -1 -1
 MicOpt= -1 -1 -1 -1 -1 -1 -1 -1 -1 -1 -1 -1 -1 -1 -1 -1 -1 -1 -1 -1
 MicOpt= -1 -1 -1 -1 -1 -1 -1 -1 -1 -1 -1 -1 -1 -1 -1 -1 -1 -1 -1 -1
 MicOpt= -1 -1
                           ----------------------------
                           !    Current Parameters    !
                           ! (Angstroms and Degrees)  !
 --------------------------                            --------------------------
 ! Name  Definition              Value                                          !
 --------------------------------------------------------------------------------
 ! R1    R(1,3)                  2.0921                                         !
 ! R2    R(1,5)                  1.9902                                         !
 ! R3    R(1,8)                  1.95                                           !
 ! R4    R(1,14)                 2.0921                                         !
 ! R5    R(2,9)                  1.3614                                         !
 ! R6    R(2,33)                 1.3263                                         !
 ! R7    R(3,16)                 1.3527                                         !
 ! R8    R(3,24)                 1.3336                                         !
 ! R9    R(4,15)                 1.3614                                         !
 ! R10   R(4,37)                 1.3263                                         !
 ! R11   R(5,10)                 1.3381                                         !
 ! R12   R(5,19)                 1.3381                                         !
 ! R13   R(6,13)                 1.4642                                         !
 ! R14   R(6,58)                 1.4053                                         !
 ! R15   R(6,61)                 1.4176                                         !
 ! R16   R(7,8)                  1.3526                                         !
 ! R17   R(7,15)                 1.4255                                         !
 ! R18   R(7,64)                 1.3842                                         !
 ! R19   R(8,32)                 1.3526                                         !
 ! R20   R(9,13)                 1.4176                                         !
 ! R21   R(9,32)                 1.4255                                         !
 ! R22   R(10,16)                1.4832                                         !
 ! R23   R(10,17)                1.3934                                         !
 ! R24   R(11,12)                1.0821                                         !
 ! R25   R(11,42)                1.3848                                         !
 ! R26   R(11,54)                1.4053                                         !
 ! R27   R(13,26)                1.4053                                         !
 ! R28   R(14,39)                1.3527                                         !
 ! R29   R(14,46)                1.3336                                         !
 ! R30   R(15,54)                1.4176                                         !
 ! R31   R(16,20)                1.3909                                         !
 ! R32   R(17,18)                1.0804                                         !
 ! R33   R(17,28)                1.3923                                         !
 ! R34   R(19,35)                1.3934                                         !
 ! R35   R(19,39)                1.4832                                         !
 ! R36   R(20,21)                1.0808                                         !
 ! R37   R(20,22)                1.3916                                         !
 ! R38   R(22,23)                1.0824                                         !
 ! R39   R(22,30)                1.3901                                         !
 ! R40   R(24,25)                1.0829                                         !
 ! R41   R(24,30)                1.3904                                         !
 ! R42   R(26,27)                1.0821                                         !
 ! R43   R(26,40)                1.3848                                         !
 ! R44   R(28,29)                1.0823                                         !
 ! R45   R(28,35)                1.3923                                         !
 ! R46   R(30,31)                1.0815                                         !
 ! R47   R(32,55)                1.3842                                         !
 ! R48   R(33,34)                1.0839                                         !
 ! R49   R(33,40)                1.4032                                         !
 ! R50   R(35,36)                1.0804                                         !
 ! R51   R(37,38)                1.0839                                         !
 ! R52   R(37,42)                1.4032                                         !
 ! R53   R(39,44)                1.3909                                         !
 ! R54   R(40,41)                1.0815                                         !
 ! R55   R(42,43)                1.0815                                         !
 ! R56   R(44,45)                1.0808                                         !
 ! R57   R(44,50)                1.3916                                         !
 ! R58   R(46,47)                1.0829                                         !
 ! R59   R(46,48)                1.3904                                         !
 ! R60   R(48,49)                1.0815                                         !
 ! R61   R(48,50)                1.3901                                         !
 ! R62   R(50,51)                1.0824                                         !
 ! R63   R(52,57)                1.3614                                         !
 ! R64   R(52,65)                1.3263                                         !
 ! R65   R(53,61)                1.3614                                         !
 ! R66   R(53,67)                1.3263                                         !
 ! R67   R(54,60)                1.4642                                         !
 ! R68   R(55,56)                1.3526                                         !
 ! R69   R(55,61)                1.4255                                         !
 ! R70   R(56,64)                1.3526                                         !
 ! R71   R(56,73)                1.95                                           !
 ! R72   R(57,60)                1.4176                                         !
 ! R73   R(57,64)                1.4255                                         !
 ! R74   R(58,59)                1.0821                                         !
 ! R75   R(58,71)                1.3848                                         !
 ! R76   R(60,62)                1.4053                                         !
 ! R77   R(62,63)                1.0821                                         !
 ! R78   R(62,69)                1.3848                                         !
 ! R79   R(65,66)                1.0839                                         !
 ! R80   R(65,69)                1.4032                                         !
 ! R81   R(67,68)                1.0839                                         !
 ! R82   R(67,71)                1.4032                                         !
 ! R83   R(69,70)                1.0815                                         !
 ! R84   R(71,72)                1.0815                                         !
 ! R85   R(73,74)                2.0921                                         !
 ! R86   R(73,75)                1.9902                                         !
 ! R87   R(73,77)                2.0921                                         !
 ! R88   R(74,78)                1.3527                                         !
 ! R89   R(74,86)                1.3336                                         !
 ! R90   R(75,76)                1.3381                                         !
 ! R91   R(75,81)                1.3381                                         !
 ! R92   R(76,78)                1.4832                                         !
 ! R93   R(76,79)                1.3934                                         !
 ! R94   R(77,94)                1.3527                                         !
 ! R95   R(77,97)                1.3336                                         !
 ! R96   R(78,82)                1.3909                                         !
 ! R97   R(79,80)                1.0804                                         !
 ! R98   R(79,88)                1.3923                                         !
 ! R99   R(81,92)                1.3934                                         !
 ! R100  R(81,94)                1.4832                                         !
 ! R101  R(82,83)                1.0808                                         !
 ! R102  R(82,84)                1.3916                                         !
 ! R103  R(84,85)                1.0824                                         !
 ! R104  R(84,90)                1.3901                                         !
 ! R105  R(86,87)                1.0829                                         !
 ! R106  R(86,90)                1.3904                                         !
 ! R107  R(88,89)                1.0823                                         !
 ! R108  R(88,92)                1.3923                                         !
 ! R109  R(90,91)                1.0815                                         !
 ! R110  R(92,93)                1.0804                                         !
 ! R111  R(94,95)                1.3909                                         !
 ! R112  R(95,96)                1.0808                                         !
 ! R113  R(95,101)               1.3916                                         !
 ! R114  R(97,98)                1.0829                                         !
 ! R115  R(97,99)                1.3904                                         !
 ! R116  R(99,100)               1.0815                                         !
 ! R117  R(99,101)               1.3901                                         !
 ! R118  R(101,102)              1.0824                                         !
 ! A1    A(3,1,5)               78.7463                                         !
 ! A2    A(3,1,8)              101.2537                                         !
 ! A3    A(3,1,14)             157.4926                                         !
 ! A4    A(5,1,14)              78.7463                                         !
 ! A5    A(8,1,14)             101.2537                                         !
 ! A6    A(9,2,33)             117.6625                                         !
 ! A7    A(1,3,16)             113.9617                                         !
 ! A8    A(1,3,24)             126.4134                                         !
 ! A9    A(16,3,24)            119.6248                                         !
 ! A10   A(15,4,37)            117.6625                                         !
 ! A11   A(1,5,10)             118.6801                                         !
 ! A12   A(1,5,19)             118.6801                                         !
 ! A13   A(10,5,19)            122.6398                                         !
 ! A14   A(13,6,58)            124.9689                                         !
 ! A15   A(13,6,61)            119.2042                                         !
 ! A16   A(58,6,61)            115.8269                                         !
 ! A17   A(8,7,15)             118.0565                                         !
 ! A18   A(8,7,64)             121.0624                                         !
 ! A19   A(15,7,64)            120.8811                                         !
 ! A20   A(1,8,7)              121.0624                                         !
 ! A21   A(1,8,32)             121.0624                                         !
 ! A22   A(7,8,32)             117.8751                                         !
 ! A23   A(2,9,13)             124.5042                                         !
 ! A24   A(2,9,32)             115.5811                                         !
 ! A25   A(13,9,32)            119.9147                                         !
 ! A26   A(5,10,16)            113.7435                                         !
 ! A27   A(5,10,17)            120.1262                                         !
 ! A28   A(16,10,17)           126.1303                                         !
 ! A29   A(12,11,42)           119.5003                                         !
 ! A30   A(12,11,54)           120.7597                                         !
 ! A31   A(42,11,54)           119.74                                           !
 ! A32   A(6,13,9)             119.2042                                         !
 ! A33   A(6,13,26)            124.9689                                         !
 ! A34   A(9,13,26)            115.8269                                         !
 ! A35   A(1,14,39)            113.9617                                         !
 ! A36   A(1,14,46)            126.4134                                         !
 ! A37   A(39,14,46)           119.6248                                         !
 ! A38   A(4,15,7)             115.5811                                         !
 ! A39   A(4,15,54)            124.5042                                         !
 ! A40   A(7,15,54)            119.9147                                         !
 ! A41   A(3,16,10)            114.8683                                         !
 ! A42   A(3,16,20)            121.323                                          !
 ! A43   A(10,16,20)           123.8086                                         !
 ! A44   A(10,17,18)           121.3006                                         !
 ! A45   A(10,17,28)           118.2783                                         !
 ! A46   A(18,17,28)           120.4211                                         !
 ! A47   A(5,19,35)            120.1262                                         !
 ! A48   A(5,19,39)            113.7435                                         !
 ! A49   A(35,19,39)           126.1303                                         !
 ! A50   A(16,20,21)           120.701                                          !
 ! A51   A(16,20,22)           118.9313                                         !
 ! A52   A(21,20,22)           120.3677                                         !
 ! A53   A(20,22,23)           120.0737                                         !
 ! A54   A(20,22,30)           119.3153                                         !
 ! A55   A(23,22,30)           120.611                                          !
 ! A56   A(3,24,25)            116.2241                                         !
 ! A57   A(3,24,30)            122.2921                                         !
 ! A58   A(25,24,30)           121.4838                                         !
 ! A59   A(13,26,27)           120.7597                                         !
 ! A60   A(13,26,40)           119.74                                           !
 ! A61   A(27,26,40)           119.5003                                         !
 ! A62   A(17,28,29)           119.7243                                         !
 ! A63   A(17,28,35)           120.5513                                         !
 ! A64   A(29,28,35)           119.7243                                         !
 ! A65   A(22,30,24)           118.5135                                         !
 ! A66   A(22,30,31)           121.4744                                         !
 ! A67   A(24,30,31)           120.0121                                         !
 ! A68   A(8,32,9)             118.0565                                         !
 ! A69   A(8,32,55)            121.0624                                         !
 ! A70   A(9,32,55)            120.8811                                         !
 ! A71   A(2,33,34)            116.6648                                         !
 ! A72   A(2,33,40)            122.4263                                         !
 ! A73   A(34,33,40)           120.9089                                         !
 ! A74   A(19,35,28)           118.2783                                         !
 ! A75   A(19,35,36)           121.3006                                         !
 ! A76   A(28,35,36)           120.4211                                         !
 ! A77   A(4,37,38)            116.6648                                         !
 ! A78   A(4,37,42)            122.4263                                         !
 ! A79   A(38,37,42)           120.9089                                         !
 ! A80   A(14,39,19)           114.8683                                         !
 ! A81   A(14,39,44)           121.323                                          !
 ! A82   A(19,39,44)           123.8086                                         !
 ! A83   A(26,40,33)           119.8401                                         !
 ! A84   A(26,40,41)           120.6749                                         !
 ! A85   A(33,40,41)           119.485                                          !
 ! A86   A(11,42,37)           119.8401                                         !
 ! A87   A(11,42,43)           120.6749                                         !
 ! A88   A(37,42,43)           119.485                                          !
 ! A89   A(39,44,45)           120.701                                          !
 ! A90   A(39,44,50)           118.9313                                         !
 ! A91   A(45,44,50)           120.3677                                         !
 ! A92   A(14,46,47)           116.2241                                         !
 ! A93   A(14,46,48)           122.2921                                         !
 ! A94   A(47,46,48)           121.4838                                         !
 ! A95   A(46,48,49)           120.0121                                         !
 ! A96   A(46,48,50)           118.5135                                         !
 ! A97   A(49,48,50)           121.4744                                         !
 ! A98   A(44,50,48)           119.3153                                         !
 ! A99   A(44,50,51)           120.0737                                         !
 ! A100  A(48,50,51)           120.611                                          !
 ! A101  A(57,52,65)           117.6625                                         !
 ! A102  A(61,53,67)           117.6625                                         !
 ! A103  A(11,54,15)           115.8269                                         !
 ! A104  A(11,54,60)           124.9689                                         !
 ! A105  A(15,54,60)           119.2042                                         !
 ! A106  A(32,55,56)           121.0624                                         !
 ! A107  A(32,55,61)           120.8811                                         !
 ! A108  A(56,55,61)           118.0565                                         !
 ! A109  A(55,56,64)           117.8751                                         !
 ! A110  A(55,56,73)           121.0624                                         !
 ! A111  A(64,56,73)           121.0624                                         !
 ! A112  A(52,57,60)           124.5042                                         !
 ! A113  A(52,57,64)           115.5811                                         !
 ! A114  A(60,57,64)           119.9147                                         !
 ! A115  A(6,58,59)            120.7597                                         !
 ! A116  A(6,58,71)            119.74                                           !
 ! A117  A(59,58,71)           119.5003                                         !
 ! A118  A(54,60,57)           119.2042                                         !
 ! A119  A(54,60,62)           124.9689                                         !
 ! A120  A(57,60,62)           115.8269                                         !
 ! A121  A(6,61,53)            124.5042                                         !
 ! A122  A(6,61,55)            119.9147                                         !
 ! A123  A(53,61,55)           115.5811                                         !
 ! A124  A(60,62,63)           120.7597                                         !
 ! A125  A(60,62,69)           119.74                                           !
 ! A126  A(63,62,69)           119.5003                                         !
 ! A127  A(7,64,56)            121.0624                                         !
 ! A128  A(7,64,57)            120.8811                                         !
 ! A129  A(56,64,57)           118.0565                                         !
 ! A130  A(52,65,66)           116.6648                                         !
 ! A131  A(52,65,69)           122.4263                                         !
 ! A132  A(66,65,69)           120.9089                                         !
 ! A133  A(53,67,68)           116.6648                                         !
 ! A134  A(53,67,71)           122.4263                                         !
 ! A135  A(68,67,71)           120.9089                                         !
 ! A136  A(62,69,65)           119.8401                                         !
 ! A137  A(62,69,70)           120.6749                                         !
 ! A138  A(65,69,70)           119.485                                          !
 ! A139  A(58,71,67)           119.8401                                         !
 ! A140  A(58,71,72)           120.6749                                         !
 ! A141  A(67,71,72)           119.485                                          !
 ! A142  A(56,73,74)           101.2537                                         !
 ! A143  A(56,73,77)           101.2537                                         !
 ! A144  A(74,73,75)            78.7463                                         !
 ! A145  A(74,73,77)           157.4926                                         !
 ! A146  A(75,73,77)            78.7463                                         !
 ! A147  A(73,74,78)           113.9617                                         !
 ! A148  A(73,74,86)           126.4134                                         !
 ! A149  A(78,74,86)           119.6248                                         !
 ! A150  A(73,75,76)           118.6801                                         !
 ! A151  A(73,75,81)           118.6801                                         !
 ! A152  A(76,75,81)           122.6398                                         !
 ! A153  A(75,76,78)           113.7435                                         !
 ! A154  A(75,76,79)           120.1262                                         !
 ! A155  A(78,76,79)           126.1303                                         !
 ! A156  A(73,77,94)           113.9617                                         !
 ! A157  A(73,77,97)           126.4134                                         !
 ! A158  A(94,77,97)           119.6248                                         !
 ! A159  A(74,78,76)           114.8683                                         !
 ! A160  A(74,78,82)           121.323                                          !
 ! A161  A(76,78,82)           123.8086                                         !
 ! A162  A(76,79,80)           121.3006                                         !
 ! A163  A(76,79,88)           118.2783                                         !
 ! A164  A(80,79,88)           120.4211                                         !
 ! A165  A(75,81,92)           120.1262                                         !
 ! A166  A(75,81,94)           113.7435                                         !
 ! A167  A(92,81,94)           126.1303                                         !
 ! A168  A(78,82,83)           120.701                                          !
 ! A169  A(78,82,84)           118.9313                                         !
 ! A170  A(83,82,84)           120.3677                                         !
 ! A171  A(82,84,85)           120.0737                                         !
 ! A172  A(82,84,90)           119.3153                                         !
 ! A173  A(85,84,90)           120.611                                          !
 ! A174  A(74,86,87)           116.2241                                         !
 ! A175  A(74,86,90)           122.2921                                         !
 ! A176  A(87,86,90)           121.4838                                         !
 ! A177  A(79,88,89)           119.7243                                         !
 ! A178  A(79,88,92)           120.5513                                         !
 ! A179  A(89,88,92)           119.7243                                         !
 ! A180  A(84,90,86)           118.5135                                         !
 ! A181  A(84,90,91)           121.4744                                         !
 ! A182  A(86,90,91)           120.0121                                         !
 ! A183  A(81,92,88)           118.2783                                         !
 ! A184  A(81,92,93)           121.3006                                         !
 ! A185  A(88,92,93)           120.4211                                         !
 ! A186  A(77,94,81)           114.8683                                         !
 ! A187  A(77,94,95)           121.323                                          !
 ! A188  A(81,94,95)           123.8086                                         !
 ! A189  A(94,95,96)           120.701                                          !
 ! A190  A(94,95,101)          118.9313                                         !
 ! A191  A(96,95,101)          120.3677                                         !
 ! A192  A(77,97,98)           116.2241                                         !
 ! A193  A(77,97,99)           122.2921                                         !
 ! A194  A(98,97,99)           121.4838                                         !
 ! A195  A(97,99,100)          120.0121                                         !
 ! A196  A(97,99,101)          118.5135                                         !
 ! A197  A(100,99,101)         121.4744                                         !
 ! A198  A(95,101,99)          119.3153                                         !
 ! A199  A(95,101,102)         120.0737                                         !
 ! A200  A(99,101,102)         120.611                                          !
 ! A201  L(5,1,8,3,-1)         180.0                                            !
 ! A202  L(56,73,75,74,-1)     180.0                                            !
 ! A203  L(5,1,8,3,-2)         180.0                                            !
 ! A204  L(56,73,75,74,-2)     180.0                                            !
 ! D1    D(5,1,3,16)             0.0                                            !
 ! D2    D(5,1,3,24)           180.0                                            !
 ! D3    D(8,1,3,16)           180.0                                            !
 ! D4    D(8,1,3,24)             0.0                                            !
 ! D5    D(14,1,3,16)            0.0                                            !
 ! D6    D(14,1,3,24)          180.0                                            !
 ! D7    D(3,1,5,10)             0.0                                            !
 ! D8    D(3,1,5,19)           180.0                                            !
 ! D9    D(14,1,5,10)          180.0                                            !
 ! D10   D(14,1,5,19)            0.0                                            !
 ! D11   D(10,5,8,7)            90.0                                            !
 ! D12   D(10,5,8,32)          -90.0                                            !
 ! D13   D(19,5,8,7)           -90.0                                            !
 ! D14   D(19,5,8,32)           90.0                                            !
 ! D15   D(3,1,8,7)             90.0                                            !
 ! D16   D(3,1,8,32)           -90.0                                            !
 ! D17   D(14,1,8,7)           -90.0                                            !
 ! D18   D(14,1,8,32)           90.0                                            !
 ! D19   D(3,1,14,39)            0.0                                            !
 ! D20   D(3,1,14,46)          180.0                                            !
 ! D21   D(5,1,14,39)            0.0                                            !
 ! D22   D(5,1,14,46)          180.0                                            !
 ! D23   D(8,1,14,39)          180.0                                            !
 ! D24   D(8,1,14,46)            0.0                                            !
 ! D25   D(33,2,9,13)            0.0                                            !
 ! D26   D(33,2,9,32)          180.0                                            !
 ! D27   D(9,2,33,34)          180.0                                            !
 ! D28   D(9,2,33,40)            0.0                                            !
 ! D29   D(1,3,16,10)            0.0                                            !
 ! D30   D(1,3,16,20)          180.0                                            !
 ! D31   D(24,3,16,10)         180.0                                            !
 ! D32   D(24,3,16,20)           0.0                                            !
 ! D33   D(1,3,24,25)            0.0                                            !
 ! D34   D(1,3,24,30)          180.0                                            !
 ! D35   D(16,3,24,25)         180.0                                            !
 ! D36   D(16,3,24,30)           0.0                                            !
 ! D37   D(37,4,15,7)          180.0                                            !
 ! D38   D(37,4,15,54)           0.0                                            !
 ! D39   D(15,4,37,38)         180.0                                            !
 ! D40   D(15,4,37,42)           0.0                                            !
 ! D41   D(1,5,10,16)            0.0                                            !
 ! D42   D(1,5,10,17)          180.0                                            !
 ! D43   D(19,5,10,16)         180.0                                            !
 ! D44   D(19,5,10,17)           0.0                                            !
 ! D45   D(1,5,19,35)          180.0                                            !
 ! D46   D(1,5,19,39)            0.0                                            !
 ! D47   D(10,5,19,35)           0.0                                            !
 ! D48   D(10,5,19,39)         180.0                                            !
 ! D49   D(58,6,13,9)          180.0                                            !
 ! D50   D(58,6,13,26)           0.0                                            !
 ! D51   D(61,6,13,9)            0.0                                            !
 ! D52   D(61,6,13,26)         180.0                                            !
 ! D53   D(13,6,58,59)           0.0                                            !
 ! D54   D(13,6,58,71)         180.0                                            !
 ! D55   D(61,6,58,59)         180.0                                            !
 ! D56   D(61,6,58,71)           0.0                                            !
 ! D57   D(13,6,61,53)         180.0                                            !
 ! D58   D(13,6,61,55)           0.0                                            !
 ! D59   D(58,6,61,53)           0.0                                            !
 ! D60   D(58,6,61,55)         180.0                                            !
 ! D61   D(15,7,8,1)             0.0                                            !
 ! D62   D(15,7,8,32)          180.0                                            !
 ! D63   D(64,7,8,1)           180.0                                            !
 ! D64   D(64,7,8,32)            0.0                                            !
 ! D65   D(8,7,15,4)             0.0                                            !
 ! D66   D(8,7,15,54)          180.0                                            !
 ! D67   D(64,7,15,4)          180.0                                            !
 ! D68   D(64,7,15,54)           0.0                                            !
 ! D69   D(8,7,64,56)            0.0                                            !
 ! D70   D(8,7,64,57)          180.0                                            !
 ! D71   D(15,7,64,56)         180.0                                            !
 ! D72   D(15,7,64,57)           0.0                                            !
 ! D73   D(1,8,32,9)             0.0                                            !
 ! D74   D(1,8,32,55)          180.0                                            !
 ! D75   D(7,8,32,9)           180.0                                            !
 ! D76   D(7,8,32,55)            0.0                                            !
 ! D77   D(2,9,13,6)           180.0                                            !
 ! D78   D(2,9,13,26)            0.0                                            !
 ! D79   D(32,9,13,6)            0.0                                            !
 ! D80   D(32,9,13,26)         180.0                                            !
 ! D81   D(2,9,32,8)             0.0                                            !
 ! D82   D(2,9,32,55)          180.0                                            !
 ! D83   D(13,9,32,8)          180.0                                            !
 ! D84   D(13,9,32,55)           0.0                                            !
 ! D85   D(5,10,16,3)            0.0                                            !
 ! D86   D(5,10,16,20)         180.0                                            !
 ! D87   D(17,10,16,3)         180.0                                            !
 ! D88   D(17,10,16,20)          0.0                                            !
 ! D89   D(5,10,17,18)         180.0                                            !
 ! D90   D(5,10,17,28)           0.0                                            !
 ! D91   D(16,10,17,18)          0.0                                            !
 ! D92   D(16,10,17,28)        180.0                                            !
 ! D93   D(12,11,42,37)        180.0                                            !
 ! D94   D(12,11,42,43)          0.0                                            !
 ! D95   D(54,11,42,37)          0.0                                            !
 ! D96   D(54,11,42,43)        180.0                                            !
 ! D97   D(12,11,54,15)        180.0                                            !
 ! D98   D(12,11,54,60)          0.0                                            !
 ! D99   D(42,11,54,15)          0.0                                            !
 ! D100  D(42,11,54,60)        180.0                                            !
 ! D101  D(6,13,26,27)           0.0                                            !
 ! D102  D(6,13,26,40)         180.0                                            !
 ! D103  D(9,13,26,27)         180.0                                            !
 ! D104  D(9,13,26,40)           0.0                                            !
 ! D105  D(1,14,39,19)           0.0                                            !
 ! D106  D(1,14,39,44)         180.0                                            !
 ! D107  D(46,14,39,19)        180.0                                            !
 ! D108  D(46,14,39,44)          0.0                                            !
 ! D109  D(1,14,46,47)           0.0                                            !
 ! D110  D(1,14,46,48)         180.0                                            !
 ! D111  D(39,14,46,47)        180.0                                            !
 ! D112  D(39,14,46,48)          0.0                                            !
 ! D113  D(4,15,54,11)           0.0                                            !
 ! D114  D(4,15,54,60)         180.0                                            !
 ! D115  D(7,15,54,11)         180.0                                            !
 ! D116  D(7,15,54,60)           0.0                                            !
 ! D117  D(3,16,20,21)         180.0                                            !
 ! D118  D(3,16,20,22)           0.0                                            !
 ! D119  D(10,16,20,21)          0.0                                            !
 ! D120  D(10,16,20,22)        180.0                                            !
 ! D121  D(10,17,28,29)        180.0                                            !
 ! D122  D(10,17,28,35)          0.0                                            !
 ! D123  D(18,17,28,29)          0.0                                            !
 ! D124  D(18,17,28,35)        180.0                                            !
 ! D125  D(5,19,35,28)           0.0                                            !
 ! D126  D(5,19,35,36)         180.0                                            !
 ! D127  D(39,19,35,28)        180.0                                            !
 ! D128  D(39,19,35,36)          0.0                                            !
 ! D129  D(5,19,39,14)           0.0                                            !
 ! D130  D(5,19,39,44)         180.0                                            !
 ! D131  D(35,19,39,14)        180.0                                            !
 ! D132  D(35,19,39,44)          0.0                                            !
 ! D133  D(16,20,22,23)        180.0                                            !
 ! D134  D(16,20,22,30)          0.0                                            !
 ! D135  D(21,20,22,23)          0.0                                            !
 ! D136  D(21,20,22,30)        180.0                                            !
 ! D137  D(20,22,30,24)          0.0                                            !
 ! D138  D(20,22,30,31)        180.0                                            !
 ! D139  D(23,22,30,24)        180.0                                            !
 ! D140  D(23,22,30,31)          0.0                                            !
 ! D141  D(3,24,30,22)           0.0                                            !
 ! D142  D(3,24,30,31)         180.0                                            !
 ! D143  D(25,24,30,22)        180.0                                            !
 ! D144  D(25,24,30,31)          0.0                                            !
 ! D145  D(13,26,40,33)          0.0                                            !
 ! D146  D(13,26,40,41)        180.0                                            !
 ! D147  D(27,26,40,33)        180.0                                            !
 ! D148  D(27,26,40,41)          0.0                                            !
 ! D149  D(17,28,35,19)          0.0                                            !
 ! D150  D(17,28,35,36)        180.0                                            !
 ! D151  D(29,28,35,19)        180.0                                            !
 ! D152  D(29,28,35,36)          0.0                                            !
 ! D153  D(8,32,55,56)           0.0                                            !
 ! D154  D(8,32,55,61)         180.0                                            !
 ! D155  D(9,32,55,56)         180.0                                            !
 ! D156  D(9,32,55,61)           0.0                                            !
 ! D157  D(2,33,40,26)           0.0                                            !
 ! D158  D(2,33,40,41)         180.0                                            !
 ! D159  D(34,33,40,26)        180.0                                            !
 ! D160  D(34,33,40,41)          0.0                                            !
 ! D161  D(4,37,42,11)           0.0                                            !
 ! D162  D(4,37,42,43)         180.0                                            !
 ! D163  D(38,37,42,11)        180.0                                            !
 ! D164  D(38,37,42,43)          0.0                                            !
 ! D165  D(14,39,44,45)        180.0                                            !
 ! D166  D(14,39,44,50)          0.0                                            !
 ! D167  D(19,39,44,45)          0.0                                            !
 ! D168  D(19,39,44,50)        180.0                                            !
 ! D169  D(39,44,50,48)          0.0                                            !
 ! D170  D(39,44,50,51)        180.0                                            !
 ! D171  D(45,44,50,48)        180.0                                            !
 ! D172  D(45,44,50,51)          0.0                                            !
 ! D173  D(14,46,48,49)        180.0                                            !
 ! D174  D(14,46,48,50)          0.0                                            !
 ! D175  D(47,46,48,49)          0.0                                            !
 ! D176  D(47,46,48,50)        180.0                                            !
 ! D177  D(46,48,50,44)          0.0                                            !
 ! D178  D(46,48,50,51)        180.0                                            !
 ! D179  D(49,48,50,44)        180.0                                            !
 ! D180  D(49,48,50,51)          0.0                                            !
 ! D181  D(65,52,57,60)          0.0                                            !
 ! D182  D(65,52,57,64)        180.0                                            !
 ! D183  D(57,52,65,66)        180.0                                            !
 ! D184  D(57,52,65,69)          0.0                                            !
 ! D185  D(67,53,61,6)           0.0                                            !
 ! D186  D(67,53,61,55)        180.0                                            !
 ! D187  D(61,53,67,68)        180.0                                            !
 ! D188  D(61,53,67,71)          0.0                                            !
 ! D189  D(11,54,60,57)        180.0                                            !
 ! D190  D(11,54,60,62)          0.0                                            !
 ! D191  D(15,54,60,57)          0.0                                            !
 ! D192  D(15,54,60,62)        180.0                                            !
 ! D193  D(32,55,56,64)          0.0                                            !
 ! D194  D(32,55,56,73)        180.0                                            !
 ! D195  D(61,55,56,64)        180.0                                            !
 ! D196  D(61,55,56,73)          0.0                                            !
 ! D197  D(32,55,61,6)           0.0                                            !
 ! D198  D(32,55,61,53)        180.0                                            !
 ! D199  D(56,55,61,6)         180.0                                            !
 ! D200  D(56,55,61,53)          0.0                                            !
 ! D201  D(55,56,64,7)           0.0                                            !
 ! D202  D(55,56,64,57)        180.0                                            !
 ! D203  D(73,56,64,7)         180.0                                            !
 ! D204  D(73,56,64,57)          0.0                                            !
 ! D205  D(55,56,73,74)         90.0                                            !
 ! D206  D(55,56,73,77)        -90.0                                            !
 ! D207  D(64,56,73,74)        -90.0                                            !
 ! D208  D(64,56,73,77)         90.0                                            !
 ! D209  D(55,56,75,76)         90.0                                            !
 ! D210  D(55,56,75,81)        -90.0                                            !
 ! D211  D(64,56,75,76)        -90.0                                            !
 ! D212  D(64,56,75,81)         90.0                                            !
 ! D213  D(52,57,60,54)        180.0                                            !
 ! D214  D(52,57,60,62)          0.0                                            !
 ! D215  D(64,57,60,54)          0.0                                            !
 ! D216  D(64,57,60,62)        180.0                                            !
 ! D217  D(52,57,64,7)         180.0                                            !
 ! D218  D(52,57,64,56)          0.0                                            !
 ! D219  D(60,57,64,7)           0.0                                            !
 ! D220  D(60,57,64,56)        180.0                                            !
 ! D221  D(6,58,71,67)           0.0                                            !
 ! D222  D(6,58,71,72)         180.0                                            !
 ! D223  D(59,58,71,67)        180.0                                            !
 ! D224  D(59,58,71,72)          0.0                                            !
 ! D225  D(54,60,62,63)          0.0                                            !
 ! D226  D(54,60,62,69)        180.0                                            !
 ! D227  D(57,60,62,63)        180.0                                            !
 ! D228  D(57,60,62,69)          0.0                                            !
 ! D229  D(60,62,69,65)          0.0                                            !
 ! D230  D(60,62,69,70)        180.0                                            !
 ! D231  D(63,62,69,65)        180.0                                            !
 ! D232  D(63,62,69,70)          0.0                                            !
 ! D233  D(52,65,69,62)          0.0                                            !
 ! D234  D(52,65,69,70)        180.0                                            !
 ! D235  D(66,65,69,62)        180.0                                            !
 ! D236  D(66,65,69,70)          0.0                                            !
 ! D237  D(53,67,71,58)          0.0                                            !
 ! D238  D(53,67,71,72)        180.0                                            !
 ! D239  D(68,67,71,58)        180.0                                            !
 ! D240  D(68,67,71,72)          0.0                                            !
 ! D241  D(56,73,74,78)        180.0                                            !
 ! D242  D(56,73,74,86)          0.0                                            !
 ! D243  D(75,73,74,78)          0.0                                            !
 ! D244  D(75,73,74,86)        180.0                                            !
 ! D245  D(77,73,74,78)          0.0                                            !
 ! D246  D(77,73,74,86)        180.0                                            !
 ! D247  D(74,73,75,76)          0.0                                            !
 ! D248  D(74,73,75,81)        180.0                                            !
 ! D249  D(77,73,75,76)        180.0                                            !
 ! D250  D(77,73,75,81)          0.0                                            !
 ! D251  D(56,73,77,94)        180.0                                            !
 ! D252  D(56,73,77,97)          0.0                                            !
 ! D253  D(74,73,77,94)          0.0                                            !
 ! D254  D(74,73,77,97)        180.0                                            !
 ! D255  D(75,73,77,94)          0.0                                            !
 ! D256  D(75,73,77,97)        180.0                                            !
 ! D257  D(73,74,78,76)          0.0                                            !
 ! D258  D(73,74,78,82)        180.0                                            !
 ! D259  D(86,74,78,76)        180.0                                            !
 ! D260  D(86,74,78,82)          0.0                                            !
 ! D261  D(73,74,86,87)          0.0                                            !
 ! D262  D(73,74,86,90)        180.0                                            !
 ! D263  D(78,74,86,87)        180.0                                            !
 ! D264  D(78,74,86,90)          0.0                                            !
 ! D265  D(73,75,76,78)          0.0                                            !
 ! D266  D(73,75,76,79)        180.0                                            !
 ! D267  D(81,75,76,78)        180.0                                            !
 ! D268  D(81,75,76,79)          0.0                                            !
 ! D269  D(73,75,81,92)        180.0                                            !
 ! D270  D(73,75,81,94)          0.0                                            !
 ! D271  D(76,75,81,92)          0.0                                            !
 ! D272  D(76,75,81,94)        180.0                                            !
 ! D273  D(75,76,78,74)          0.0                                            !
 ! D274  D(75,76,78,82)        180.0                                            !
 ! D275  D(79,76,78,74)        180.0                                            !
 ! D276  D(79,76,78,82)          0.0                                            !
 ! D277  D(75,76,79,80)        180.0                                            !
 ! D278  D(75,76,79,88)          0.0                                            !
 ! D279  D(78,76,79,80)          0.0                                            !
 ! D280  D(78,76,79,88)        180.0                                            !
 ! D281  D(73,77,94,81)          0.0                                            !
 ! D282  D(73,77,94,95)        180.0                                            !
 ! D283  D(97,77,94,81)        180.0                                            !
 ! D284  D(97,77,94,95)          0.0                                            !
 ! D285  D(73,77,97,98)          0.0                                            !
 ! D286  D(73,77,97,99)        180.0                                            !
 ! D287  D(94,77,97,98)        180.0                                            !
 ! D288  D(94,77,97,99)          0.0                                            !
 ! D289  D(74,78,82,83)        180.0                                            !
 ! D290  D(74,78,82,84)          0.0                                            !
 ! D291  D(76,78,82,83)          0.0                                            !
 ! D292  D(76,78,82,84)        180.0                                            !
 ! D293  D(76,79,88,89)        180.0                                            !
 ! D294  D(76,79,88,92)          0.0                                            !
 ! D295  D(80,79,88,89)          0.0                                            !
 ! D296  D(80,79,88,92)        180.0                                            !
 ! D297  D(75,81,92,88)          0.0                                            !
 ! D298  D(75,81,92,93)        180.0                                            !
 ! D299  D(94,81,92,88)        180.0                                            !
 ! D300  D(94,81,92,93)          0.0                                            !
 ! D301  D(75,81,94,77)          0.0                                            !
 ! D302  D(75,81,94,95)        180.0                                            !
 ! D303  D(92,81,94,77)        180.0                                            !
 ! D304  D(92,81,94,95)          0.0                                            !
 ! D305  D(78,82,84,85)        180.0                                            !
 ! D306  D(78,82,84,90)          0.0                                            !
 ! D307  D(83,82,84,85)          0.0                                            !
 ! D308  D(83,82,84,90)        180.0                                            !
 ! D309  D(82,84,90,86)          0.0                                            !
 ! D310  D(82,84,90,91)        180.0                                            !
 ! D311  D(85,84,90,86)        180.0                                            !
 ! D312  D(85,84,90,91)          0.0                                            !
 ! D313  D(74,86,90,84)          0.0                                            !
 ! D314  D(74,86,90,91)        180.0                                            !
 ! D315  D(87,86,90,84)        180.0                                            !
 ! D316  D(87,86,90,91)          0.0                                            !
 ! D317  D(79,88,92,81)          0.0                                            !
 ! D318  D(79,88,92,93)        180.0                                            !
 ! D319  D(89,88,92,81)        180.0                                            !
 ! D320  D(89,88,92,93)          0.0                                            !
 ! D321  D(77,94,95,96)        180.0                                            !
 ! D322  D(77,94,95,101)         0.0                                            !
 ! D323  D(81,94,95,96)          0.0                                            !
 ! D324  D(81,94,95,101)       180.0                                            !
 ! D325  D(94,95,101,99)         0.0                                            !
 ! D326  D(94,95,101,102)      180.0                                            !
 ! D327  D(96,95,101,99)       180.0                                            !
 ! D328  D(96,95,101,102)        0.0                                            !
 ! D329  D(77,97,99,100)       180.0                                            !
 ! D330  D(77,97,99,101)         0.0                                            !
 ! D331  D(98,97,99,100)         0.0                                            !
 ! D332  D(98,97,99,101)       180.0                                            !
 ! D333  D(97,99,101,95)         0.0                                            !
 ! D334  D(97,99,101,102)      180.0                                            !
 ! D335  D(100,99,101,95)      180.0                                            !
 ! D336  D(100,99,101,102)       0.0                                            !
 --------------------------------------------------------------------------------
 NAtoms=    102 NQM=      102 NQMF=       0 NMMI=      0 NMMIF=      0
                NMic=       0 NMicF=      0.
                    Isotopes and Nuclear Properties:
 (Nuclear quadrupole moments (NQMom) in fm**2, nuclear magnetic moments (NMagM)
  in nuclear magnetons)

  Atom         1           2           3           4           5           6           7           8           9          10
 IAtWgt=          58          14          14          14          14          12          12          14          12          12
 AtmWgt=  57.9353471  14.0030740  14.0030740  14.0030740  14.0030740  12.0000000  12.0000000  14.0030740  12.0000000  12.0000000
 NucSpn=           0           2           2           2           2           0           0           2           0           0
 AtZEff=  25.4800000   4.5500000   4.5500000   4.5500000   4.5500000   3.6000000   3.6000000   4.5500000   3.6000000   3.6000000
 NQMom=    0.0000000   2.0440000   2.0440000   2.0440000   2.0440000   0.0000000   0.0000000   2.0440000   0.0000000   0.0000000
 NMagM=    0.0000000   0.4037610   0.4037610   0.4037610   0.4037610   0.0000000   0.0000000   0.4037610   0.0000000   0.0000000
 AtZNuc=  28.0000000   7.0000000   7.0000000   7.0000000   7.0000000   6.0000000   6.0000000   7.0000000   6.0000000   6.0000000

  Atom        11          12          13          14          15          16          17          18          19          20
 IAtWgt=          12           1          12          14          12          12          12           1          12          12
 AtmWgt=  12.0000000   1.0078250  12.0000000  14.0030740  12.0000000  12.0000000  12.0000000   1.0078250  12.0000000  12.0000000
 NucSpn=           0           1           0           2           0           0           0           1           0           0
 AtZEff=   3.6000000   1.0000000   3.6000000   4.5500000   3.6000000   3.6000000   3.6000000   1.0000000   3.6000000   3.6000000
 NQMom=    0.0000000   0.0000000   0.0000000   2.0440000   0.0000000   0.0000000   0.0000000   0.0000000   0.0000000   0.0000000
 NMagM=    0.0000000   2.7928460   0.0000000   0.4037610   0.0000000   0.0000000   0.0000000   2.7928460   0.0000000   0.0000000
 AtZNuc=   6.0000000   1.0000000   6.0000000   7.0000000   6.0000000   6.0000000   6.0000000   1.0000000   6.0000000   6.0000000

  Atom        21          22          23          24          25          26          27          28          29          30
 IAtWgt=           1          12           1          12           1          12           1          12           1          12
 AtmWgt=   1.0078250  12.0000000   1.0078250  12.0000000   1.0078250  12.0000000   1.0078250  12.0000000   1.0078250  12.0000000
 NucSpn=           1           0           1           0           1           0           1           0           1           0
 AtZEff=   1.0000000   3.6000000   1.0000000   3.6000000   1.0000000   3.6000000   1.0000000   3.6000000   1.0000000   3.6000000
 NQMom=    0.0000000   0.0000000   0.0000000   0.0000000   0.0000000   0.0000000   0.0000000   0.0000000   0.0000000   0.0000000
 NMagM=    2.7928460   0.0000000   2.7928460   0.0000000   2.7928460   0.0000000   2.7928460   0.0000000   2.7928460   0.0000000
 AtZNuc=   1.0000000   6.0000000   1.0000000   6.0000000   1.0000000   6.0000000   1.0000000   6.0000000   1.0000000   6.0000000

  Atom        31          32          33          34          35          36          37          38          39          40
 IAtWgt=           1          12          12           1          12           1          12           1          12          12
 AtmWgt=   1.0078250  12.0000000  12.0000000   1.0078250  12.0000000   1.0078250  12.0000000   1.0078250  12.0000000  12.0000000
 NucSpn=           1           0           0           1           0           1           0           1           0           0
 AtZEff=   1.0000000   3.6000000   3.6000000   1.0000000   3.6000000   1.0000000   3.6000000   1.0000000   3.6000000   3.6000000
 NQMom=    0.0000000   0.0000000   0.0000000   0.0000000   0.0000000   0.0000000   0.0000000   0.0000000   0.0000000   0.0000000
 NMagM=    2.7928460   0.0000000   0.0000000   2.7928460   0.0000000   2.7928460   0.0000000   2.7928460   0.0000000   0.0000000
 AtZNuc=   1.0000000   6.0000000   6.0000000   1.0000000   6.0000000   1.0000000   6.0000000   1.0000000   6.0000000   6.0000000

  Atom        41          42          43          44          45          46          47          48          49          50
 IAtWgt=           1          12           1          12           1          12           1          12           1          12
 AtmWgt=   1.0078250  12.0000000   1.0078250  12.0000000   1.0078250  12.0000000   1.0078250  12.0000000   1.0078250  12.0000000
 NucSpn=           1           0           1           0           1           0           1           0           1           0
 AtZEff=   1.0000000   3.6000000   1.0000000   3.6000000   1.0000000   3.6000000   1.0000000   3.6000000   1.0000000   3.6000000
 NQMom=    0.0000000   0.0000000   0.0000000   0.0000000   0.0000000   0.0000000   0.0000000   0.0000000   0.0000000   0.0000000
 NMagM=    2.7928460   0.0000000   2.7928460   0.0000000   2.7928460   0.0000000   2.7928460   0.0000000   2.7928460   0.0000000
 AtZNuc=   1.0000000   6.0000000   1.0000000   6.0000000   1.0000000   6.0000000   1.0000000   6.0000000   1.0000000   6.0000000

  Atom        51          52          53          54          55          56          57          58          59          60
 IAtWgt=           1          14          14          12          12          14          12          12           1          12
 AtmWgt=   1.0078250  14.0030740  14.0030740  12.0000000  12.0000000  14.0030740  12.0000000  12.0000000   1.0078250  12.0000000
 NucSpn=           1           2           2           0           0           2           0           0           1           0
 AtZEff=   1.0000000   4.5500000   4.5500000   3.6000000   3.6000000   4.5500000   3.6000000   3.6000000   1.0000000   3.6000000
 NQMom=    0.0000000   2.0440000   2.0440000   0.0000000   0.0000000   2.0440000   0.0000000   0.0000000   0.0000000   0.0000000
 NMagM=    2.7928460   0.4037610   0.4037610   0.0000000   0.0000000   0.4037610   0.0000000   0.0000000   2.7928460   0.0000000
 AtZNuc=   1.0000000   7.0000000   7.0000000   6.0000000   6.0000000   7.0000000   6.0000000   6.0000000   1.0000000   6.0000000

  Atom        61          62          63          64          65          66          67          68          69          70
 IAtWgt=          12          12           1          12          12           1          12           1          12           1
 AtmWgt=  12.0000000  12.0000000   1.0078250  12.0000000  12.0000000   1.0078250  12.0000000   1.0078250  12.0000000   1.0078250
 NucSpn=           0           0           1           0           0           1           0           1           0           1
 AtZEff=   3.6000000   3.6000000   1.0000000   3.6000000   3.6000000   1.0000000   3.6000000   1.0000000   3.6000000   1.0000000
 NQMom=    0.0000000   0.0000000   0.0000000   0.0000000   0.0000000   0.0000000   0.0000000   0.0000000   0.0000000   0.0000000
 NMagM=    0.0000000   0.0000000   2.7928460   0.0000000   0.0000000   2.7928460   0.0000000   2.7928460   0.0000000   2.7928460
 AtZNuc=   6.0000000   6.0000000   1.0000000   6.0000000   6.0000000   1.0000000   6.0000000   1.0000000   6.0000000   1.0000000

  Atom        71          72          73          74          75          76          77          78          79          80
 IAtWgt=          12           1          58          14          14          12          14          12          12           1
 AtmWgt=  12.0000000   1.0078250  57.9353471  14.0030740  14.0030740  12.0000000  14.0030740  12.0000000  12.0000000   1.0078250
 NucSpn=           0           1           0           2           2           0           2           0           0           1
 AtZEff=   3.6000000   1.0000000  25.4800000   4.5500000   4.5500000   3.6000000   4.5500000   3.6000000   3.6000000   1.0000000
 NQMom=    0.0000000   0.0000000   0.0000000   2.0440000   2.0440000   0.0000000   2.0440000   0.0000000   0.0000000   0.0000000
 NMagM=    0.0000000   2.7928460   0.0000000   0.4037610   0.4037610   0.0000000   0.4037610   0.0000000   0.0000000   2.7928460
 AtZNuc=   6.0000000   1.0000000  28.0000000   7.0000000   7.0000000   6.0000000   7.0000000   6.0000000   6.0000000   1.0000000

  Atom        81          82          83          84          85          86          87          88          89          90
 IAtWgt=          12          12           1          12           1          12           1          12           1          12
 AtmWgt=  12.0000000  12.0000000   1.0078250  12.0000000   1.0078250  12.0000000   1.0078250  12.0000000   1.0078250  12.0000000
 NucSpn=           0           0           1           0           1           0           1           0           1           0
 AtZEff=   3.6000000   3.6000000   1.0000000   3.6000000   1.0000000   3.6000000   1.0000000   3.6000000   1.0000000   3.6000000
 NQMom=    0.0000000   0.0000000   0.0000000   0.0000000   0.0000000   0.0000000   0.0000000   0.0000000   0.0000000   0.0000000
 NMagM=    0.0000000   0.0000000   2.7928460   0.0000000   2.7928460   0.0000000   2.7928460   0.0000000   2.7928460   0.0000000
 AtZNuc=   6.0000000   6.0000000   1.0000000   6.0000000   1.0000000   6.0000000   1.0000000   6.0000000   1.0000000   6.0000000

  Atom        91          92          93          94          95          96          97          98          99         100
 IAtWgt=           1          12           1          12          12           1          12           1          12           1
 AtmWgt=   1.0078250  12.0000000   1.0078250  12.0000000  12.0000000   1.0078250  12.0000000   1.0078250  12.0000000   1.0078250
 NucSpn=           1           0           1           0           0           1           0           1           0           1
 AtZEff=   1.0000000   3.6000000   1.0000000   3.6000000   3.6000000   1.0000000   3.6000000   1.0000000   3.6000000   1.0000000
 NQMom=    0.0000000   0.0000000   0.0000000   0.0000000   0.0000000   0.0000000   0.0000000   0.0000000   0.0000000   0.0000000
 NMagM=    2.7928460   0.0000000   2.7928460   0.0000000   0.0000000   2.7928460   0.0000000   2.7928460   0.0000000   2.7928460
 AtZNuc=   1.0000000   6.0000000   1.0000000   6.0000000   6.0000000   1.0000000   6.0000000   1.0000000   6.0000000   1.0000000

  Atom       101         102
 IAtWgt=          12           1
 AtmWgt=  12.0000000   1.0078250
 NucSpn=           0           1
 AtZEff=   3.6000000   1.0000000
 NQMom=    0.0000000   0.0000000
 NMagM=    0.0000000   2.7928460
 AtZNuc=   6.0000000   1.0000000
 Leave Link  101 at Fri Aug 30 17:01:57 2024, MaxMem= 11953766400 cpu:              17.3 elap:               0.7
 (Enter /opt/gaussian16/g16/l202.exe)
 Stoichiometry    C54H34N12Ni2(3+,6)
 Framework group  D2H[C2(HCNNiN.NNiNCH),SG'(C28H20N4),SG"(C24H12N4)]
 Deg. of freedom    51
 Full point group                 D2H     NOp   8
 RotChk:  IX=0 Diff= 3.59D-15
 Largest Abelian subgroup         D2H     NOp   8
 Largest concise Abelian subgroup D2H     NOp   8
                         Standard orientation:                         
 ---------------------------------------------------------------------
 Center     Atomic      Atomic             Coordinates (Angstroms)
 Number     Number       Type             X           Y           Z
 ---------------------------------------------------------------------
      1         28           0       -3.340069    0.000000   -0.000000
      2          7           0       -2.779297    2.256317   -0.000000
      3          7           0       -3.748356    0.000000    2.051909
      4          7           0       -2.779297   -2.256317   -0.000000
      5          7           0       -5.330239    0.000000   -0.000000
      6          6           0        0.732100    3.619438    0.000000
      7          6           0       -0.692120   -1.158664   -0.000000
      8          7           0       -1.390034    0.000000   -0.000000
      9          6           0       -1.423763    2.382066   -0.000000
     10          6           0       -5.972433    0.000000    1.173960
     11          6           0       -1.537504   -4.771003   -0.000000
     12          1           0       -1.092704   -5.757434   -0.000000
     13          6           0       -0.732100    3.619438   -0.000000
     14          7           0       -3.748356    0.000000   -2.051909
     15          6           0       -1.423763   -2.382066   -0.000000
     16          6           0       -5.067929    0.000000    2.349483
     17          6           0       -7.365438    0.000000    1.209125
     18          1           0       -7.903253    0.000000    2.146133
     19          6           0       -5.972433    0.000000   -1.173960
     20          6           0       -5.511927    0.000000    3.667659
     21          1           0       -6.568722    0.000000    3.893946
     22          6           0       -4.572599    0.000000    4.694419
     23          1           0       -4.897596    0.000000    5.726901
     24          6           0       -2.850243    0.000000    3.037785
     25          1           0       -1.809819    0.000000    2.737309
     26          6           0       -1.537504    4.771003    0.000000
     27          1           0       -1.092704    5.757434    0.000000
     28          6           0       -8.055792    0.000000   -0.000000
     29          1           0       -9.138059    0.000000   -0.000000
     30          6           0       -3.218894    0.000000    4.378446
     31          1           0       -2.459377    0.000000    5.148298
     32          6           0       -0.692120    1.158664    0.000000
     33          6           0       -3.500910    3.369098   -0.000000
     34          1           0       -4.578273    3.250200   -0.000000
     35          6           0       -7.365438    0.000000   -1.209125
     36          1           0       -7.903253    0.000000   -2.146133
     37          6           0       -3.500910   -3.369098   -0.000000
     38          1           0       -4.578273   -3.250200   -0.000000
     39          6           0       -5.067929    0.000000   -2.349483
     40          6           0       -2.916546    4.644800   -0.000000
     41          1           0       -3.550784    5.520844   -0.000000
     42          6           0       -2.916546   -4.644800   -0.000000
     43          1           0       -3.550784   -5.520844   -0.000000
     44          6           0       -5.511927    0.000000   -3.667659
     45          1           0       -6.568722    0.000000   -3.893946
     46          6           0       -2.850243    0.000000   -3.037785
     47          1           0       -1.809819    0.000000   -2.737309
     48          6           0       -3.218894    0.000000   -4.378446
     49          1           0       -2.459377    0.000000   -5.148298
     50          6           0       -4.572599    0.000000   -4.694419
     51          1           0       -4.897596    0.000000   -5.726901
     52          7           0        2.779297   -2.256317   -0.000000
     53          7           0        2.779297    2.256317    0.000000
     54          6           0       -0.732100   -3.619438    0.000000
     55          6           0        0.692120    1.158664   -0.000000
     56          7           0        1.390034   -0.000000   -0.000000
     57          6           0        1.423763   -2.382066   -0.000000
     58          6           0        1.537504    4.771003   -0.000000
     59          1           0        1.092704    5.757434   -0.000000
     60          6           0        0.732100   -3.619438   -0.000000
     61          6           0        1.423763    2.382066    0.000000
     62          6           0        1.537504   -4.771003    0.000000
     63          1           0        1.092704   -5.757434    0.000000
     64          6           0        0.692120   -1.158664    0.000000
     65          6           0        3.500910   -3.369098   -0.000000
     66          1           0        4.578273   -3.250200   -0.000000
     67          6           0        3.500910    3.369098    0.000000
     68          1           0        4.578273    3.250200    0.000000
     69          6           0        2.916546   -4.644800   -0.000000
     70          1           0        3.550784   -5.520844   -0.000000
     71          6           0        2.916546    4.644800    0.000000
     72          1           0        3.550784    5.520844    0.000000
     73         28           0        3.340069   -0.000000   -0.000000
     74          7           0        3.748356   -0.000000    2.051909
     75          7           0        5.330239   -0.000000   -0.000000
     76          6           0        5.972433   -0.000000    1.173960
     77          7           0        3.748356    0.000000   -2.051909
     78          6           0        5.067929   -0.000000    2.349483
     79          6           0        7.365438   -0.000000    1.209125
     80          1           0        7.903253   -0.000000    2.146133
     81          6           0        5.972433    0.000000   -1.173960
     82          6           0        5.511927   -0.000000    3.667659
     83          1           0        6.568722   -0.000000    3.893946
     84          6           0        4.572599   -0.000000    4.694419
     85          1           0        4.897596   -0.000000    5.726901
     86          6           0        2.850243   -0.000000    3.037785
     87          1           0        1.809819   -0.000000    2.737309
     88          6           0        8.055792   -0.000000   -0.000000
     89          1           0        9.138059   -0.000000   -0.000000
     90          6           0        3.218894   -0.000000    4.378446
     91          1           0        2.459377   -0.000000    5.148298
     92          6           0        7.365438    0.000000   -1.209125
     93          1           0        7.903253    0.000000   -2.146133
     94          6           0        5.067929    0.000000   -2.349483
     95          6           0        5.511927    0.000000   -3.667659
     96          1           0        6.568722    0.000000   -3.893946
     97          6           0        2.850243    0.000000   -3.037785
     98          1           0        1.809819    0.000000   -2.737309
     99          6           0        3.218894    0.000000   -4.378446
    100          1           0        2.459377    0.000000   -5.148298
    101          6           0        4.572599    0.000000   -4.694419
    102          1           0        4.897596    0.000000   -5.726901
 ---------------------------------------------------------------------
 Rotational constants (GHZ):           0.0610687           0.0252752           0.0250619
 Leave Link  202 at Fri Aug 30 17:01:57 2024, MaxMem= 11953766400 cpu:               0.1 elap:               0.0
 (Enter /opt/gaussian16/g16/l301.exe)
 Standard basis: 6-311G(d,p) (5D, 7F)
 Ernie: Thresh=  0.10000D-02 Tol=  0.10000D-05 Strict=F.
 There are   310 symmetry adapted cartesian basis functions of AG  symmetry.
 There are   182 symmetry adapted cartesian basis functions of B1G symmetry.
 There are   199 symmetry adapted cartesian basis functions of B2G symmetry.
 There are    90 symmetry adapted cartesian basis functions of B3G symmetry.
 There are    90 symmetry adapted cartesian basis functions of AU  symmetry.
 There are   199 symmetry adapted cartesian basis functions of B1U symmetry.
 There are   182 symmetry adapted cartesian basis functions of B2U symmetry.
 There are   310 symmetry adapted cartesian basis functions of B3U symmetry.
 There are   288 symmetry adapted basis functions of AG  symmetry.
 There are   174 symmetry adapted basis functions of B1G symmetry.
 There are   190 symmetry adapted basis functions of B2G symmetry.
 There are    90 symmetry adapted basis functions of B3G symmetry.
 There are    90 symmetry adapted basis functions of AU  symmetry.
 There are   190 symmetry adapted basis functions of B1U symmetry.
 There are   174 symmetry adapted basis functions of B2U symmetry.
 There are   288 symmetry adapted basis functions of B3U symmetry.
  1484 basis functions,  2546 primitive gaussians,  1562 cartesian basis functions
   250 alpha electrons      245 beta electrons
       nuclear repulsion energy     12557.3975976460 Hartrees.
 IExCor= 2523 DFT=T Ex+Corr=TPSSh ExCW=0 ScaHFX=  0.100000
 ScaDFX=  0.900000  0.900000  1.000000  1.000000 ScalE2=  1.000000  1.000000
 IRadAn=      5 IRanWt=     -1 IRanGd=            0 ICorTp=0 IEmpDi=  4
 NAtoms=  102 NActive=  102 NUniq=   28 SFac= 4.00D+00 NAtFMM=   60 NAOKFM=T Big=F
 Integral buffers will be    131072 words long.
 Raffenetti 2 integral format.
 Two-electron integral symmetry is turned on.
 ------------------------------------------------------------------------------
 Polarizable Continuum Model (PCM)
 =================================
 Model                : C-PCM.
 Atomic radii         : UFF (Universal Force Field).
 Polarization charges : Total charges.
 Charge compensation  : None.
 Solution method      : On-the-fly selection.
 Cavity type          : Scaled VdW (van der Waals Surface) (Alpha=1.100).
 Cavity algorithm     : GePol (No added spheres)
                        Default sphere list used, NSphG=  102.
                        Lebedev-Laikov grids with approx.  5.0 points / Ang**2.
                        Smoothing algorithm: York/Karplus (Gamma=1.0000).
                        Polarization charges: spherical gaussians, with
                                              point-specific exponents (IZeta= 3).
                        Self-potential: point-specific (ISelfS= 7).
                        Self-field    : sphere-specific E.n sum rule (ISelfD= 2).
 Solvent              : Acetonitrile, Eps=  35.688000 Eps(inf)=   1.806874
 ------------------------------------------------------------------------------
 GePol: Number of generator spheres                  =     102
 GePol: Total number of spheres                      =     102
 GePol: Number of exposed spheres                    =     100 ( 98.04%)
 GePol: Number of points                             =    7262
 GePol: Average weight of points                     =       0.12
 GePol: Minimum weight of points                     =   0.38D-11
 GePol: Maximum weight of points                     =    0.20577
 GePol: Number of points with low weight             =     632
 GePol: Fraction of low-weight points (<1% of avg)   =       8.70%
 GePol: Cavity surface area                          =    879.249 Ang**2
 GePol: Cavity volume                                =   1100.733 Ang**3
 Leave Link  301 at Fri Aug 30 17:01:57 2024, MaxMem= 11953766400 cpu:               1.3 elap:               0.1
 (Enter /opt/gaussian16/g16/l302.exe)
 NPDir=0 NMtPBC=     1 NCelOv=     1 NCel=       1 NClECP=     1 NCelD=      1
         NCelK=      1 NCelE2=     1 NClLst=     1 CellRange=     0.0.
 One-electron integrals computed using PRISM.
 One-electron integral symmetry used in STVInt
 NBasis=  1484 RedAO= T EigKep=  5.43D-05  NBF=   288   174   190    90    90   190   174   288
 NBsUse=  1484 1.00D-06 EigRej= -1.00D+00 NBFU=   288   174   190    90    90   190   174   288
 Precomputing XC quadrature grid using
 IXCGrd= 4 IRadAn=           5 IRanWt=          -1 IRanGd=           0 AccXCQ= 0.00D+00.
 Generated NRdTot=       0 NPtTot=           0 NUsed=           0 NTot=          32
 NSgBfM=  1411  1396  1396  1405  1411 MxSgAt=   102 MxSgA2=   102.
 Leave Link  302 at Fri Aug 30 17:02:00 2024, MaxMem= 11953766400 cpu:              78.1 elap:               3.3
 (Enter /opt/gaussian16/g16/l303.exe)
 DipDrv:  MaxL=1.
 Leave Link  303 at Fri Aug 30 17:02:01 2024, MaxMem= 11953766400 cpu:               7.1 elap:               0.4
 (Enter /opt/gaussian16/g16/l401.exe)
 ExpMin= 4.64D-02 ExpMax= 2.85D+05 ExpMxC= 9.63D+03 IAcc=3 IRadAn=         5 AccDes= 0.00D+00
 Harris functional with IExCor= 1009 and IRadAn=       5 diagonalized for initial guess.
 HarFok:  IExCor= 1009 AccDes= 0.00D+00 IRadAn=         5 IDoV= 1 UseB2=F ITyADJ=14
 ICtDFT=  3500011 ScaDFX=  1.000000  1.000000  1.000000  1.000000
 FoFCou: FMM=F IPFlag=           0 FMFlag=      100000 FMFlg1=        2000
         NFxFlg=           0 DoJE=T BraDBF=F KetDBF=T FulRan=T
         wScrn=  0.000000 ICntrl=       500 IOpCl=  0 I1Cent=   200000004 NGrid=           0
         NMat0=    1 NMatS0=      1 NMatT0=    0 NMatD0=    1 NMtDS0=    0 NMtDT0=    0
 Petite list used in FoFCou.
 Harris En= -5748.83688608092    
 JPrj=0 DoOrth=F DoCkMO=F.
 Initial guess orbital symmetries:
 Alpha Orbitals:
       Occupied  (B3U) (AG) (B3U) (AG) (B3U) (AG) (B2G) (B1U) (B1G)
                 (B2U) (B3U) (AG) (B3U) (AG) (B3U) (B2G) (B1U)
                 (AG) (B3U) (B1G) (B2U) (AG) (B2G) (B1U) (B3U)
                 (AG) (B3U) (AG) (B3U) (B2G) (AG) (B1U) (B2G) (B3U)
                 (B1U) (AG) (B1G) (B3U) (B2U) (AG) (B2G) (B1U)
                 (B3U) (AG) (B3U) (B1G) (AG) (B2U) (B2G) (B3U)
                 (B1U) (AG) (B3U) (B1G) (AG) (B2U) (B2U) (AG) (B3U)
                 (B1G) (AG) (B2U) (B3U) (B1G) (B3U) (AG) (B2G)
                 (B1U) (B1G) (B3U) (B2U) (AG) (B2G) (B3U) (B1U)
                 (AG) (B3U) (AG) (B3U) (AG) (B2G) (B1U) (B1G) (B2U)
                 (AG) (B3U) (AG) (B2G) (B1U) (B2U) (B3U) (B1G)
                 (AG) (B3U) (AG) (B3U) (B2U) (AG) (B2U) (B3U) (AG)
                 (B2G) (B1U) (B3U) (AG) (B1G) (B1U) (B2G) (B3U)
                 (AG) (AG) (B3U) (B1G) (B1U) (B2G) (B3U) (B2U)
                 (AG) (B1G) (B1U) (B2G) (B2U) (AG) (B3U) (AG) (AG)
                 (B3U) (B1U) (B2G) (B3U) (B2U) (AG) (B3U) (AG)
                 (B1G) (B3U) (B1U) (B2G) (B1G) (B2U) (AG) (B3U)
                 (AG) (B2U) (B1U) (B2G) (B3U) (B1U) (B2G) (AG)
                 (AG) (B3U) (AG) (B3U) (AG) (B1G) (B2U) (B1U) (B2G)
                 (B3U) (B1G) (AG) (B3U) (B2U) (B1U) (B2G) (B3U)
                 (AG) (B1U) (B3U) (B2G) (AG) (B3U) (B1U) (AG) (B2U)
                 (B1G) (B2U) (B1G) (AG) (B2G) (B3U) (B1U) (AG)
                 (B2U) (B3U) (B3G) (B1G) (AU) (B3G) (B2G) (B1U)
                 (B3U) (AG) (B3U) (B2G) (AG) (B3U) (AU) (B1U) (B2U)
                 (B1G) (B2U) (B1G) (B2G) (B1U) (AG) (B3U) (B2G)
                 (AG) (B3U) (AG) (B1U) (B2G) (B3G) (B3G) (B2U)
                 (B1G) (B1U) (AG) (AU) (B3U) (B3G) (B2U) (B1G)
                 (AU) (B3G) (B2U) (B1G) (AU) (B2G) (B1U) (B2U)
                 (B1G) (AU) (B3G) (AU) (B2G) (B3G) (B1U) (B2U)
                 (B1G) (AU) (B3G) (B2G) (B1U) (AU) (B2U) (B1G)
                 (B3G)
       Virtual   (AU) (B1U) (AG) (B3U) (B3G) (B2G) (B2U) (B1G)
                 (AU) (B3G) (AG) (B3U) (B3G) (B2U) (B1G) (AU) (B1U)
                 (B2G) (B3G) (AU) (AU) (AG) (B2U) (B1G) (B3U) (B1U)
                 (B2G) (B3G) (AG) (B1U) (AG) (B2U) (B2G) (B3U)
                 (B1G) (B3U) (B1U) (AU) (B3G) (AG) (AG) (AG) (B2G)
                 (B2U) (B3U) (B1U) (AG) (B3U) (B1G) (B2U) (B3U)
                 (AG) (B1G) (B2U) (B3U) (B1U) (B2G) (AG) (AU) (B2U)
                 (B3U) (B2G) (B1U) (B1G) (B3U) (AG) (B2G) (AG)
                 (B1G) (B2G) (B1U) (B3U) (B2G) (AG) (B3U) (B2U)
                 (AG) (AG) (B2U) (B1U) (B2G) (B3U) (AG) (B3U) (B1G)
                 (B3U) (AG) (B1U) (B1U) (B2G) (B3U) (B2U) (AG)
                 (B3U) (B3U) (B2G) (AG) (AG) (B3U) (B1G) (B1U)
                 (AG) (AG) (B1G) (B2G) (B2U) (B3U) (AG) (B3U) (AG)
                 (B1G) (B2G) (B2U) (B3U) (B1U) (B3U) (B3U) (B1U)
                 (B1G) (B2G) (B2U) (AG) (B3U) (AG) (B1U) (B3U)
                 (AG) (B1G) (B3U) (B2G) (B1G) (B1U) (B3G) (B2G)
                 (AG) (AG) (AU) (B3U) (B1U) (B3U) (B2G) (B2U) (AG)
                 (B1G) (AG) (B1U) (B2U) (B3U) (B2G) (B1U) (B2U)
                 (B1U) (AG) (B1G) (B3G) (B2G) (B3U) (B2U) (B2G)
                 (B1U) (AG) (B3U) (B2U) (B3U) (B1G) (AU) (AG) (B3G)
                 (B3U) (B2G) (AG) (B1G) (B2U) (B1U) (B1G) (B3U)
                 (AG) (B2G) (B2U) (AU) (B3U) (B3G) (AG) (B1U) (B2U)
                 (AU) (B3G) (AG) (B1U) (B1G) (AG) (B3U) (B2G) (B2G)
                 (B2U) (B1G) (B3U) (B1U) (AG) (B3U) (AG) (B2U)
                 (B1U) (B1G) (AU) (B3U) (B3G) (AG) (B2U) (B1U)
                 (B2U) (B2G) (B3G) (AU) (B1G) (B2G) (AG) (B1U)
                 (B3G) (B1G) (B3U) (AG) (B1G) (B2U) (B1U) (B2G)
                 (B1G) (B2U) (AU) (B3U) (B1U) (AU) (B3G) (B2G)
                 (AG) (B3U) (AG) (AU) (B1U) (B3U) (B2G) (B2U) (B3U)
                 (AG) (B3G) (AG) (B2G) (B1U) (AG) (B2U) (B1G) (B3U)
                 (B2G) (B1U) (B1G) (B2U) (B3U) (AG) (B1G) (B2G)
                 (B3U) (B2U) (AG) (B1G) (AU) (B3U) (B1U) (B3G)
                 (B1G) (AG) (B3U) (B2G) (B2U) (B3G) (B3U) (B1U)
                 (AU) (AG) (B3U) (B2U) (B1U) (B2G) (AG) (AU) (B1G)
                 (B3U) (B1U) (B1G) (B3U) (AG) (B3G) (AG) (B3G)
                 (B2G) (AU) (B3U) (AG) (B2G) (B3U) (B1U) (B2G)
                 (B1G) (AG) (B3U) (B1U) (B2U) (B1G) (B3U) (AG)
                 (B2G) (B3U) (B2U) (B1G) (B2G) (B2U) (B1U) (AG)
                 (B3U) (B1U) (AG) (B2G) (B1U) (B2G) (AG) (AG) (B3U)
                 (B3U) (B2U) (AU) (B1G) (B3U) (AG) (B2G) (B2U)
                 (AG) (B1U) (B3U) (AG) (B1U) (B2U) (B3U) (B1G)
                 (B3U) (B1G) (AG) (B2G) (B1G) (B2U) (B1U) (B2G)
                 (B1U) (AG) (B3U) (AG) (B2U) (B3G) (B3U) (B1G)
                 (B1U) (B2G) (B1U) (AG) (B3U) (AG) (B2U) (B1G)
                 (B3U) (AU) (AG) (B3U) (B2G) (B3G) (B1U) (B2G)
                 (AG) (B3G) (AU) (B3G) (B3U) (B1G) (B1U) (AG) (B2U)
                 (B2G) (AU) (B3U) (B3G) (B2G) (B2U) (B1G) (B1U)
                 (B1G) (AU) (B2G) (AG) (B3U) (B2U) (AU) (B3G) (B1G)
                 (B1U) (AU) (B3U) (B2G) (AG) (B2U) (B3U) (B3G)
                 (B1U) (B1G) (B2G) (B3G) (AU) (B2U) (B1U) (AG)
                 (B3G) (B3U) (B1G) (B2U) (AG) (B2G) (B1U) (B2U)
                 (B3U) (B3G) (AU) (B3G) (B1G) (B1U) (B2G) (B2U)
                 (AG) (AG) (B2G) (AU) (B3U) (B3U) (AG) (B3G) (AU)
                 (B1U) (B2U) (B3U) (AG) (B1G) (AU) (B3G) (AU) (B3G)
                 (AG) (B2U) (B3U) (B1G) (B1U) (B3G) (B2G) (AG)
                 (B3U) (B2G) (AU) (B3U) (AG) (B1G) (B1U) (B2G)
                 (B2U) (B2U) (B1G) (B3U) (B1U) (B1G) (B1U) (AG)
                 (B2U) (B2G) (B1G) (B3U) (B2G) (AG) (B1U) (B3U)
                 (B2U) (B3G) (AG) (AU) (B1G) (B3U) (AG) (B3U) (B2G)
                 (B1U) (B2G) (AG) (B1G) (B1U) (B2U) (AG) (B2U)
                 (B3U) (B2U) (B1U) (B3U) (B2G) (AG) (B1G) (AG)
                 (B3U) (AU) (B2G) (AG) (B2U) (AG) (B1U) (B3U) (B2G)
                 (B1G) (AG) (B3U) (B1G) (B3U) (B2G) (B1U) (AG)
                 (B3U) (B1U) (B2G) (AG) (B3U) (AG) (B1G) (B3U)
                 (B2U) (B3G) (B2U) (AU) (B1G) (B2U) (B3G) (AG)
                 (B1U) (B1G) (AU) (B2U) (B3G) (B3G) (B3U) (B1G)
                 (B1U) (AG) (AU) (B2G) (B1G) (B2U) (B1U) (AU) (B3U)
                 (B2G) (B3G) (B2U) (B1U) (AG) (B2G) (AU) (B3G)
                 (B3U) (B1G) (AG) (B3U) (AG) (B2U) (AU) (B1U) (B3U)
                 (B2G) (B2U) (AG) (B1G) (B1U) (B2U) (AG) (B2G)
                 (B3U) (B1G) (B2G) (AG) (B3U) (B2U) (B1U) (B3U)
                 (B3G) (AG) (B1G) (B3U) (AU) (B1U) (B2G) (B1U)
                 (B3G) (B3U) (AG) (B2G) (AU) (B1G) (B2G) (B3U)
                 (B2U) (AG) (B1U) (B3U) (B1G) (B3G) (AU) (B1U)
                 (B3G) (B2U) (AG) (B1G) (B2G) (AU) (B2G) (B2U)
                 (B3U) (B2U) (B1G) (B3G) (AG) (AU) (B2U) (B3U)
                 (B1U) (B1G) (AG) (B2U) (B3U) (B2G) (AG) (B1G)
                 (B2G) (B1U) (AG) (B3U) (B2G) (B3G) (AG) (B3U)
                 (B1U) (B1G) (B1U) (B2U) (AG) (AU) (B3U) (B1G)
                 (B2U) (B2G) (B1U) (B2G) (B1G) (B3U) (AG) (B3G)
                 (AU) (B3U) (B1U) (AG) (B3U) (B3U) (AG) (B3G) (B1U)
                 (B2U) (B2G) (AG) (B1G) (B3U) (B1U) (B2G) (B1G)
                 (B2U) (AG) (B1U) (B3U) (B2G) (AG) (B1G) (B2U)
                 (AU) (B1U) (B3U) (B3G) (B2G) (AU) (AG) (B2U) (B2G)
                 (B1U) (B3G) (B1U) (AG) (B1G) (B3U) (B3G) (AU)
                 (B2U) (B2G) (AU) (B3G) (AG) (B1G) (B3U) (B2U)
                 (B1G) (B3U) (B2U) (B2G) (AU) (AG) (B3U) (B2G)
                 (B1G) (B1U) (B3G) (B1U) (B3G) (B2U) (AU) (B1U)
                 (B2G) (B2G) (B2U) (AG) (B1G) (AG) (AU) (B3G) (AU)
                 (B2U) (B3U) (AG) (B1G) (AG) (B2U) (B3U) (AG) (B2U)
                 (B1U) (B3U) (B2G) (AU) (B3U) (AG) (B2G) (B3G)
                 (B3U) (AG) (B1U) (B1U) (B1G) (B3U) (B2U) (B1G)
                 (B2G) (AG) (B1G) (B1U) (B2G) (B3U) (AG) (B2G)
                 (B2U) (B1U) (B2U) (B1G) (B3U) (AG) (B2G) (B3U)
                 (AG) (B3G) (AU) (B3G) (B3U) (AG) (B1U) (B1G) (AG)
                 (B3U) (B1G) (B1U) (B3U) (B2G) (AU) (B3U) (B2U)
                 (B1G) (AG) (AU) (B3G) (B1U) (B2G) (B2U) (B3U)
                 (B3U) (AG) (B2G) (B3G) (AU) (B1G) (B1U) (B1U)
                 (B3U) (B3G) (B2G) (B2U) (B1G) (B1U) (AU) (B3G)
                 (AG) (B1U) (B1G) (B3U) (B2U) (B1G) (B2G) (AG)
                 (B2U) (B2U) (B3U) (AG) (B1G) (AU) (B3G) (B2G)
                 (AU) (B2G) (AG) (B1U) (B3U) (B2U) (AG) (AG) (B2U)
                 (B3U) (B2G) (B1G) (B1U) (AG) (B3G) (B2G) (B1U)
                 (B1G) (B3U) (AG) (AG) (B3U) (B2U) (AU) (AG) (B3G)
                 (B3U) (B3U) (B2G) (B1U) (AG) (B1G) (AG) (B1U)
                 (B2G) (B2U) (B3G) (AU) (B3U) (AG) (B3U) (B2U)
                 (B1G) (B1U) (AG) (B3U) (AU) (B3U) (AG) (B3G) (B2U)
                 (B1G) (B3U) (B1U) (B2U) (B1U) (B2G) (B1G) (B2G)
                 (AU) (AG) (B1U) (B1G) (B3G) (B3U) (AG) (B2G) (AU)
                 (B2G) (B3U) (B1U) (B3G) (B2U) (AU) (AG) (B1G)
                 (B3U) (B2G) (B1U) (B3U) (B3G) (AG) (B1G) (B2U)
                 (B2G) (B3U) (AU) (B1U) (B2G) (B1G) (B1U) (AG)
                 (B3U) (B2U) (AU) (AG) (B2U) (B3U) (B2G) (B1G)
                 (AG) (B3U) (B1G) (B1U) (B2G) (B1U) (B3G) (AG)
                 (AU) (B2G) (B2U) (B1G) (B3U) (B2U) (B3G) (B1U)
                 (B1G) (B3G) (B3U) (AU) (B1G) (B3G) (AU) (B2G)
                 (AG) (B2U) (B3U) (AG) (B1U) (AU) (B2G) (AG) (B2U)
                 (B2G) (B3U) (B2U) (AG) (AG) (B1U) (AG) (B2G) (B3U)
                 (B1U) (B2G) (B3U) (B1U) (B2G) (B1G) (B2U) (AG)
                 (B3U) (B3U) (AG) (B2U) (B3U) (B1G) (B1U) (B2G)
                 (AG) (B3U) (B1G) (B2U) (AG) (B3U) (B1U) (B2G)
                 (B3U) (B2U) (AG) (B3U) (B1G) (AG) (B1U) (B2G)
                 (AG) (B3U) (B3U) (B1G) (B2U) (AG) (B1U) (B2G)
                 (AG) (B3U) (AG) (AG) (B3U) (B1U) (B2G) (B1G) (B3U)
                 (AG) (B1G) (B3U) (B3G) (B3U) (AU) (AG) (B2U) (B2U)
                 (B1G) (B3U) (B1U) (B2G) (AG) (B1G) (B3U) (AG)
                 (B2U) (B1U) (B2G) (B1U) (B2U) (B1G) (B3G) (AU)
                 (B2G) (AG) (B2U) (B1G) (B1U) (B3U) (AG) (B3U)
                 (B2G) (B1U) (B2G) (AG) (B3U) (B2U) (B1U) (AG)
                 (B1G) (AG) (B3U) (B2U) (B3G) (B2G) (AU) (B1U)
                 (B3U) (B1G) (B2G) (B2U) (AG) (B1U) (AG) (B3U)
                 (B3U) (B1G) (B2G) (AG) (B3U) (AG) (B3U) (B1U)
                 (B1G) (B2G) (AG) (B3U) (B2U) (B1U) (B2G) (B1G)
                 (B3U) (AG) (B3U) (AG) (B3U) (B1U) (B2G) (AG) (B2U)
                 (AG) (B3U) (B1U) (B2G) (AG) (B3U) (AG) (B2U) (B1G)
                 (B3U) (AG) (B3U) (B1G) (B3U) (AG) (B1U) (B2G)
                 (B3U) (B1G) (B3U) (B2U) (B1U) (B2G) (AG) (B1G)
                 (AG) (B3U) (B3U) (B2U) (B1U) (B2G) (B1G) (B3G)
                 (AU) (B2U) (B1G) (B1U) (B2G) (AG) (B3U) (AG) (B3U)
                 (B2U) (B1G) (B1U) (B2G) (AG) (B3U) (AG) (B2U)
                 (AG) (B3U) (B1U) (B2G) (B3U) (B1G) (AG) (B3U)
                 (B2U) (AG) (B1U) (B2G) (AG) (B3U) (B1U) (B2G)
                 (B1G) (AG) (B3U) (B2U) (AG) (B3U) (B2U) (B1U)
                 (B2G) (B3U) (AG) (B3U) (B1G) (AG) (B2U) (AG) (B3U)
                 (B1G) (B1U) (B2G) (AG) (B3U) (B1U) (B2G) (B2U)
                 (AG) (B1G) (B3U) (AG) (B3U) (B1U) (B2G) (B3U)
                 (AG) (B1G) (B3U) (AG) (B3U) (AG) (B3U) (AG) (B1U)
                 (B2G) (B2U) (B1G) (B3U) (AG) (AG) (B3U) (B3U)
                 (B2U) (B1G) (B1U) (B2G) (AG) (B3U) (AG) (B3U)
                 (AG) (B3U)
 Beta  Orbitals:
       Occupied  (B3U) (AG) (B3U) (AG) (B3U) (AG) (B2G) (B1U) (B1G)
                 (B2U) (B3U) (AG) (B3U) (AG) (B3U) (B2G) (B1U)
                 (AG) (B3U) (B1G) (B2U) (AG) (B2G) (B1U) (B3U)
                 (AG) (B3U) (AG) (B3U) (B2G) (AG) (B1U) (B2G) (B3U)
                 (B1U) (AG) (B1G) (B3U) (B2U) (AG) (B2G) (B1U)
                 (B3U) (AG) (B3U) (B1G) (AG) (B2U) (B2G) (B3U)
                 (B1U) (AG) (B3U) (B1G) (AG) (B2U) (B2U) (AG) (B3U)
                 (B1G) (AG) (B2U) (B3U) (B1G) (B3U) (AG) (B2G)
                 (B1U) (B1G) (B3U) (B2U) (AG) (B2G) (B3U) (B1U)
                 (AG) (B3U) (AG) (B3U) (AG) (B2G) (B1U) (B1G) (B2U)
                 (AG) (B3U) (AG) (B2G) (B1U) (B2U) (B3U) (B1G)
                 (AG) (B3U) (AG) (B3U) (B2U) (AG) (B2U) (B3U) (AG)
                 (B2G) (B1U) (B3U) (AG) (B1G) (B1U) (B2G) (B3U)
                 (AG) (AG) (B3U) (B1G) (B1U) (B2G) (B3U) (B2U)
                 (AG) (B1G) (B1U) (B2G) (B2U) (AG) (B3U) (AG) (AG)
                 (B3U) (B1U) (B2G) (B3U) (B2U) (AG) (B3U) (AG)
                 (B1G) (B3U) (B1U) (B2G) (B1G) (B2U) (AG) (B3U)
                 (AG) (B2U) (B1U) (B2G) (B3U) (B1U) (B2G) (AG)
                 (AG) (B3U) (AG) (B3U) (AG) (B1G) (B2U) (B1U) (B2G)
                 (B3U) (B1G) (AG) (B3U) (B2U) (B1U) (B2G) (B3U)
                 (AG) (B1U) (B3U) (B2G) (AG) (B3U) (B1U) (AG) (B2U)
                 (B1G) (B2U) (B1G) (AG) (B2G) (B3U) (B1U) (AG)
                 (B2U) (B3U) (B3G) (B1G) (AU) (B3G) (B2G) (B1U)
                 (B3U) (AG) (B3U) (B2G) (AG) (B3U) (AU) (B1U) (B2U)
                 (B1G) (B2U) (B1G) (B2G) (B1U) (AG) (B3U) (B2G)
                 (AG) (B3U) (AG) (B1U) (B2G) (B3G) (B3G) (B2U)
                 (B1G) (B1U) (AG) (AU) (B3U) (B3G) (B2U) (B1G)
                 (AU) (B3G) (B2U) (B1G) (AU) (B2G) (B1U) (B2U)
                 (B1G) (AU) (B3G) (AU) (B2G) (B3G) (B1U) (B2U)
                 (B1G) (AU) (B3G) (B2G)
       Virtual   (B1U) (AU) (B2U) (B1G) (B3G) (AU) (B1U) (AG) (B3U)
                 (B3G) (B2G) (B2U) (B1G) (AU) (B3G) (AG) (B3U)
                 (B3G) (B2U) (B1G) (AU) (B1U) (B2G) (B3G) (AU)
                 (AU) (AG) (B2U) (B1G) (B3U) (B1U) (B2G) (B3G)
                 (AG) (B1U) (AG) (B2U) (B2G) (B3U) (B1G) (B3U)
                 (B1U) (AU) (B3G) (AG) (AG) (AG) (B2G) (B2U) (B3U)
                 (B1U) (AG) (B3U) (B1G) (B2U) (B3U) (AG) (B1G)
                 (B2U) (B3U) (B1U) (B2G) (AG) (AU) (B2U) (B3U)
                 (B2G) (B1U) (B1G) (B3U) (AG) (B2G) (AG) (B1G)
                 (B2G) (B1U) (B3U) (B2G) (AG) (B3U) (B2U) (AG)
                 (AG) (B2U) (B1U) (B2G) (B3U) (AG) (B3U) (B1G)
                 (B3U) (AG) (B1U) (B1U) (B2G) (B3U) (B2U) (AG)
                 (B3U) (B3U) (B2G) (AG) (AG) (B3U) (B1G) (B1U)
                 (AG) (AG) (B1G) (B2G) (B2U) (B3U) (AG) (B3U) (AG)
                 (B1G) (B2G) (B2U) (B3U) (B1U) (B3U) (B3U) (B1U)
                 (B1G) (B2G) (B2U) (AG) (B3U) (AG) (B1U) (B3U)
                 (AG) (B1G) (B3U) (B2G) (B1G) (B1U) (B3G) (B2G)
                 (AG) (AG) (AU) (B3U) (B1U) (B3U) (B2G) (B2U) (AG)
                 (B1G) (AG) (B1U) (B2U) (B3U) (B2G) (B1U) (B2U)
                 (B1U) (AG) (B1G) (B3G) (B2G) (B3U) (B2U) (B2G)
                 (B1U) (AG) (B3U) (B2U) (B3U) (B1G) (AU) (AG) (B3G)
                 (B3U) (B2G) (AG) (B1G) (B2U) (B1U) (B1G) (B3U)
                 (AG) (B2G) (B2U) (AU) (B3U) (B3G) (AG) (B1U) (B2U)
                 (AU) (B3G) (AG) (B1U) (B1G) (AG) (B3U) (B2G) (B2G)
                 (B2U) (B1G) (B3U) (B1U) (AG) (B3U) (AG) (B2U)
                 (B1U) (B1G) (AU) (B3U) (B3G) (AG) (B2U) (B1U)
                 (B2U) (B2G) (B3G) (AU) (B1G) (B2G) (AG) (B1U)
                 (B3G) (B1G) (B3U) (AG) (B1G) (B2U) (B1U) (B2G)
                 (B1G) (B2U) (AU) (B3U) (B1U) (AU) (B3G) (B2G)
                 (AG) (B3U) (AG) (AU) (B1U) (B3U) (B2G) (B2U) (B3U)
                 (AG) (B3G) (AG) (B2G) (B1U) (AG) (B2U) (B1G) (B3U)
                 (B2G) (B1U) (B1G) (B2U) (B3U) (AG) (B1G) (B2G)
                 (B3U) (B2U) (AG) (B1G) (AU) (B3U) (B1U) (B3G)
                 (B1G) (AG) (B3U) (B2G) (B2U) (B3G) (B3U) (B1U)
                 (AU) (AG) (B3U) (B2U) (B1U) (B2G) (AG) (AU) (B1G)
                 (B3U) (B1U) (B1G) (B3U) (AG) (B3G) (AG) (B3G)
                 (B2G) (AU) (B3U) (AG) (B2G) (B3U) (B1U) (B2G)
                 (B1G) (AG) (B3U) (B1U) (B2U) (B1G) (B3U) (AG)
                 (B2G) (B3U) (B2U) (B1G) (B2G) (B2U) (B1U) (AG)
                 (B3U) (B1U) (AG) (B2G) (B1U) (B2G) (AG) (AG) (B3U)
                 (B3U) (B2U) (AU) (B1G) (B3U) (AG) (B2G) (B2U)
                 (AG) (B1U) (B3U) (AG) (B1U) (B2U) (B3U) (B1G)
                 (B3U) (B1G) (AG) (B2G) (B1G) (B2U) (B1U) (B2G)
                 (B1U) (AG) (B3U) (AG) (B2U) (B3G) (B3U) (B1G)
                 (B1U) (B2G) (B1U) (AG) (B3U) (AG) (B2U) (B1G)
                 (B3U) (AU) (AG) (B3U) (B2G) (B3G) (B1U) (B2G)
                 (AG) (B3G) (AU) (B3G) (B3U) (B1G) (B1U) (AG) (B2U)
                 (B2G) (AU) (B3U) (B3G) (B2G) (B2U) (B1G) (B1U)
                 (B1G) (AU) (B2G) (AG) (B3U) (B2U) (AU) (B3G) (B1G)
                 (B1U) (AU) (B3U) (B2G) (AG) (B2U) (B3U) (B3G)
                 (B1U) (B1G) (B2G) (B3G) (AU) (B2U) (B1U) (AG)
                 (B3G) (B3U) (B1G) (B2U) (AG) (B2G) (B1U) (B2U)
                 (B3U) (B3G) (AU) (B3G) (B1G) (B1U) (B2G) (B2U)
                 (AG) (AG) (B2G) (AU) (B3U) (B3U) (AG) (B3G) (AU)
                 (B1U) (B2U) (B3U) (AG) (B1G) (AU) (B3G) (AU) (B3G)
                 (AG) (B2U) (B3U) (B1G) (B1U) (B3G) (B2G) (AG)
                 (B3U) (B2G) (AU) (B3U) (AG) (B1G) (B1U) (B2G)
                 (B2U) (B2U) (B1G) (B3U) (B1U) (B1G) (B1U) (AG)
                 (B2U) (B2G) (B1G) (B3U) (B2G) (AG) (B1U) (B3U)
                 (B2U) (B3G) (AG) (AU) (B1G) (B3U) (AG) (B3U) (B2G)
                 (B1U) (B2G) (AG) (B1G) (B1U) (B2U) (AG) (B2U)
                 (B3U) (B2U) (B1U) (B3U) (B2G) (AG) (B1G) (AG)
                 (B3U) (AU) (B2G) (AG) (B2U) (AG) (B1U) (B3U) (B2G)
                 (B1G) (AG) (B3U) (B1G) (B3U) (B2G) (B1U) (AG)
                 (B3U) (B1U) (B2G) (AG) (B3U) (AG) (B1G) (B3U)
                 (B2U) (B3G) (B2U) (AU) (B1G) (B2U) (B3G) (AG)
                 (B1U) (B1G) (AU) (B2U) (B3G) (B3G) (B3U) (B1G)
                 (B1U) (AG) (AU) (B2G) (B1G) (B2U) (B1U) (AU) (B3U)
                 (B2G) (B3G) (B2U) (B1U) (AG) (B2G) (AU) (B3G)
                 (B3U) (B1G) (AG) (B3U) (AG) (B2U) (AU) (B1U) (B3U)
                 (B2G) (B2U) (AG) (B1G) (B1U) (B2U) (AG) (B2G)
                 (B3U) (B1G) (B2G) (AG) (B3U) (B2U) (B1U) (B3U)
                 (B3G) (AG) (B1G) (B3U) (AU) (B1U) (B2G) (B1U)
                 (B3G) (B3U) (AG) (B2G) (AU) (B1G) (B2G) (B3U)
                 (B2U) (AG) (B1U) (B3U) (B1G) (B3G) (AU) (B1U)
                 (B3G) (B2U) (AG) (B1G) (B2G) (AU) (B2G) (B2U)
                 (B3U) (B2U) (B1G) (B3G) (AG) (AU) (B2U) (B3U)
                 (B1U) (B1G) (AG) (B2U) (B3U) (B2G) (AG) (B1G)
                 (B2G) (B1U) (AG) (B3U) (B2G) (B3G) (AG) (B3U)
                 (B1U) (B1G) (B1U) (B2U) (AG) (AU) (B3U) (B1G)
                 (B2U) (B2G) (B1U) (B2G) (B1G) (B3U) (AG) (B3G)
                 (AU) (B3U) (B1U) (AG) (B3U) (B3U) (AG) (B3G) (B1U)
                 (B2U) (B2G) (AG) (B1G) (B3U) (B1U) (B2G) (B1G)
                 (B2U) (AG) (B1U) (B3U) (B2G) (AG) (B1G) (B2U)
                 (AU) (B1U) (B3U) (B3G) (B2G) (AU) (AG) (B2U) (B2G)
                 (B1U) (B3G) (B1U) (AG) (B1G) (B3U) (B3G) (AU)
                 (B2U) (B2G) (AU) (B3G) (AG) (B1G) (B3U) (B2U)
                 (B1G) (B3U) (B2U) (B2G) (AU) (AG) (B3U) (B2G)
                 (B1G) (B1U) (B3G) (B1U) (B3G) (B2U) (AU) (B1U)
                 (B2G) (B2G) (B2U) (AG) (B1G) (AG) (AU) (B3G) (AU)
                 (B2U) (B3U) (AG) (B1G) (AG) (B2U) (B3U) (AG) (B2U)
                 (B1U) (B3U) (B2G) (AU) (B3U) (AG) (B2G) (B3G)
                 (B3U) (AG) (B1U) (B1U) (B1G) (B3U) (B2U) (B1G)
                 (B2G) (AG) (B1G) (B1U) (B2G) (B3U) (AG) (B2G)
                 (B2U) (B1U) (B2U) (B1G) (B3U) (AG) (B2G) (B3U)
                 (AG) (B3G) (AU) (B3G) (B3U) (AG) (B1U) (B1G) (AG)
                 (B3U) (B1G) (B1U) (B3U) (B2G) (AU) (B3U) (B2U)
                 (B1G) (AG) (AU) (B3G) (B1U) (B2G) (B2U) (B3U)
                 (B3U) (AG) (B2G) (B3G) (AU) (B1G) (B1U) (B1U)
                 (B3U) (B3G) (B2G) (B2U) (B1G) (B1U) (AU) (B3G)
                 (AG) (B1U) (B1G) (B3U) (B2U) (B1G) (B2G) (AG)
                 (B2U) (B2U) (B3U) (AG) (B1G) (AU) (B3G) (B2G)
                 (AU) (B2G) (AG) (B1U) (B3U) (B2U) (AG) (AG) (B2U)
                 (B3U) (B2G) (B1G) (B1U) (AG) (B3G) (B2G) (B1U)
                 (B1G) (B3U) (AG) (AG) (B3U) (B2U) (AU) (AG) (B3G)
                 (B3U) (B3U) (B2G) (B1U) (AG) (B1G) (AG) (B1U)
                 (B2G) (B2U) (B3G) (AU) (B3U) (AG) (B3U) (B2U)
                 (B1G) (B1U) (AG) (B3U) (AU) (B3U) (AG) (B3G) (B2U)
                 (B1G) (B3U) (B1U) (B2U) (B1U) (B2G) (B1G) (B2G)
                 (AU) (AG) (B1U) (B1G) (B3G) (B3U) (AG) (B2G) (AU)
                 (B2G) (B3U) (B1U) (B3G) (B2U) (AU) (AG) (B1G)
                 (B3U) (B2G) (B1U) (B3U) (B3G) (AG) (B1G) (B2U)
                 (B2G) (B3U) (AU) (B1U) (B2G) (B1G) (B1U) (AG)
                 (B3U) (B2U) (AU) (AG) (B2U) (B3U) (B2G) (B1G)
                 (AG) (B3U) (B1G) (B1U) (B2G) (B1U) (B3G) (AG)
                 (AU) (B2G) (B2U) (B1G) (B3U) (B2U) (B3G) (B1U)
                 (B1G) (B3G) (B3U) (AU) (B1G) (B3G) (AU) (B2G)
                 (AG) (B2U) (B3U) (AG) (B1U) (AU) (B2G) (AG) (B2U)
                 (B2G) (B3U) (B2U) (AG) (AG) (B1U) (AG) (B2G) (B3U)
                 (B1U) (B2G) (B3U) (B1U) (B2G) (B1G) (B2U) (AG)
                 (B3U) (B3U) (AG) (B2U) (B3U) (B1G) (B1U) (B2G)
                 (AG) (B3U) (B1G) (B2U) (AG) (B3U) (B1U) (B2G)
                 (B3U) (B2U) (AG) (B3U) (B1G) (AG) (B1U) (B2G)
                 (AG) (B3U) (B3U) (B1G) (B2U) (AG) (B1U) (B2G)
                 (AG) (B3U) (AG) (AG) (B3U) (B1U) (B2G) (B1G) (B3U)
                 (AG) (B1G) (B3U) (B3G) (B3U) (AU) (AG) (B2U) (B2U)
                 (B1G) (B3U) (B1U) (B2G) (AG) (B1G) (B3U) (AG)
                 (B2U) (B1U) (B2G) (B1U) (B2U) (B1G) (B3G) (AU)
                 (B2G) (AG) (B2U) (B1G) (B1U) (B3U) (AG) (B3U)
                 (B2G) (B1U) (B2G) (AG) (B3U) (B2U) (B1U) (AG)
                 (B1G) (AG) (B3U) (B2U) (B3G) (B2G) (AU) (B1U)
                 (B3U) (B1G) (B2G) (B2U) (AG) (B1U) (AG) (B3U)
                 (B3U) (B1G) (B2G) (AG) (B3U) (AG) (B3U) (B1U)
                 (B1G) (B2G) (AG) (B3U) (B2U) (B1U) (B2G) (B1G)
                 (B3U) (AG) (B3U) (AG) (B3U) (B1U) (B2G) (AG) (B2U)
                 (AG) (B3U) (B1U) (B2G) (AG) (B3U) (AG) (B2U) (B1G)
                 (B3U) (AG) (B3U) (B1G) (B3U) (AG) (B1U) (B2G)
                 (B3U) (B1G) (B3U) (B2U) (B1U) (B2G) (AG) (B1G)
                 (AG) (B3U) (B3U) (B2U) (B1U) (B2G) (B1G) (B3G)
                 (AU) (B2U) (B1G) (B1U) (B2G) (AG) (B3U) (AG) (B3U)
                 (B2U) (B1G) (B1U) (B2G) (AG) (B3U) (AG) (B2U)
                 (AG) (B3U) (B1U) (B2G) (B3U) (B1G) (AG) (B3U)
                 (B2U) (AG) (B1U) (B2G) (AG) (B3U) (B1U) (B2G)
                 (B1G) (AG) (B3U) (B2U) (AG) (B3U) (B2U) (B1U)
                 (B2G) (B3U) (AG) (B3U) (B1G) (AG) (B2U) (AG) (B3U)
                 (B1G) (B1U) (B2G) (AG) (B3U) (B1U) (B2G) (B2U)
                 (AG) (B1G) (B3U) (AG) (B3U) (B1U) (B2G) (B3U)
                 (AG) (B1G) (B3U) (AG) (B3U) (AG) (B3U) (AG) (B1U)
                 (B2G) (B2U) (B1G) (B3U) (AG) (AG) (B3U) (B3U)
                 (B2U) (B1G) (B1U) (B2G) (AG) (B3U) (AG) (B3U)
                 (AG) (B3U)
 The electronic state of the initial guess is 6-B1U.
 Initial guess <Sx>= 0.0000 <Sy>= 0.0000 <Sz>= 2.5000 <S**2>= 8.7500 S= 2.5000
 Leave Link  401 at Fri Aug 30 17:02:06 2024, MaxMem= 11953766400 cpu:             140.1 elap:               5.9
 (Enter /opt/gaussian16/g16/l502.exe)
 Two-electron integrals replicated using symmetry.
 UHF open shell SCF:
 Using DIIS extrapolation, IDIIS=  1040.
 NGot= 11953766400 LenX= 11948809668 LenY= 11946368262
 Requested convergence on RMS density matrix=1.00D-08 within 128 cycles.
 Requested convergence on MAX density matrix=1.00D-06.
 Requested convergence on             energy=1.00D-06.
 No special actions if energy rises.
 Fock matrices will be formed incrementally for  20 cycles.

 Cycle   1  Pass 1  IDiag  1:
 FoFJK:  IHMeth= 1 ICntrl=       0 DoSepK=F KAlg= 0 I1Cent=           0 FoldK=F
 IRaf= 510000000 NMat=       1 IRICut=       1 DoRegI=T DoRafI=F ISym2E= 2 IDoP0=0 IntGTp=1.
 FoFCou: FMM=T IPFlag=           0 FMFlag=      100000 FMFlg1=        2000
         NFxFlg=           0 DoJE=F BraDBF=F KetDBF=F FulRan=T
         wScrn=  0.000000 ICntrl=         0 IOpCl=  1 I1Cent=           0 NGrid=           0
         NMat0=    1 NMatS0=      1 NMatT0=    0 NMatD0=    1 NMtDS0=    0 NMtDT0=    0
 Symmetry not used in FoFCou.
 FMM levels:  10  Number of levels for PrismC:   9
 Inv3:  Mode=1 IEnd=   158209932.
 Iteration    1 A*A^-1 deviation from unit magnitude is 1.67D-14 for   3933.
 Iteration    1 A*A^-1 deviation from orthogonality  is 6.21D-15 for   3933   3753.
 Iteration    1 A^-1*A deviation from unit magnitude is 1.67D-14 for   3933.
 Iteration    1 A^-1*A deviation from orthogonality  is 2.06D-15 for   4164   3909.
 E= -5743.67065400426    
 DIIS: error= 3.43D-01 at cycle   1 NSaved=   1.
 NSaved= 1 IEnMin= 1 EnMin= -5743.67065400426     IErMin= 1 ErrMin= 3.43D-01
 ErrMax= 3.43D-01  0.00D+00 EMaxC= 1.00D-01 BMatC= 7.36D+01 BMatP= 7.36D+01
 IDIUse=3 WtCom= 0.00D+00 WtEn= 1.00D+00
 Coeff-Com:  0.100D+01
 Coeff-En:   0.100D+01
 Coeff:      0.100D+01
 Gap=    -1.658 Goal=   None    Shift=    0.000
 Gap=    -1.479 Goal=   None    Shift=    0.000
 GapD=   -1.658 DampG=0.250 DampE=0.125 DampFc=0.1250 IDamp=-1.
 Damping current iteration by 1.25D-01
 RMSDP=6.89D-02 MaxDP=9.72D+00              OVMax= 9.90D-01

 Cycle   2  Pass 1  IDiag  1:
 RMSU=  8.43D-03    CP:  1.29D+00
 E= -5746.76006886824     Delta-E=       -3.089414863975 Rises=F Damp=T
 DIIS: error= 1.71D-01 at cycle   2 NSaved=   2.
 NSaved= 2 IEnMin= 2 EnMin= -5746.76006886824     IErMin= 2 ErrMin= 1.71D-01
 ErrMax= 1.71D-01  0.00D+00 EMaxC= 1.00D-01 BMatC= 2.21D+01 BMatP= 7.36D+01
 IDIUse=3 WtCom= 0.00D+00 WtEn= 1.00D+00
 Coeff-Com: -0.101D+01 0.201D+01
 Coeff-En:   0.000D+00 0.100D+01
 Coeff:      0.000D+00 0.100D+01
 Gap=    -0.042 Goal=   None    Shift=    0.000
 Gap=    -0.123 Goal=   None    Shift=    0.000
 RMSDP=5.81D-03 MaxDP=9.37D-01 DE=-3.09D+00 OVMax= 8.60D-01

 Cycle   3  Pass 1  IDiag  1:
 RMSU=  4.48D-03    CP:  1.46D+00  1.42D+00
 E= -5733.58642021372     Delta-E=       13.173648654523 Rises=F Damp=F
 DIIS: error= 4.12D-01 at cycle   3 NSaved=   3.
 NSaved= 3 IEnMin= 2 EnMin= -5746.76006886824     IErMin= 2 ErrMin= 1.71D-01
 ErrMax= 4.12D-01  0.00D+00 EMaxC= 1.00D-01 BMatC= 1.96D+02 BMatP= 2.21D+01
 IDIUse=2 WtCom= 0.00D+00 WtEn= 1.00D+00
 EnCoef did   100 forward-backward iterations
 Coeff-En:   0.606D+00 0.121D-01 0.382D+00
 Coeff:      0.606D+00 0.121D-01 0.382D+00
 Gap=     0.044 Goal=   None    Shift=    0.000
 Gap=     0.007 Goal=   None    Shift=    0.000
 RMSDP=1.20D-02 MaxDP=1.68D+00 DE= 1.32D+01 OVMax= 2.04D-01

 Cycle   4  Pass 1  IDiag  1:
 RMSU=  1.50D-03    CP:  9.79D-01  1.04D-01  2.83D-01
 E= -5749.77332835639     Delta-E=      -16.186908142678 Rises=F Damp=F
 DIIS: error= 1.10D-01 at cycle   4 NSaved=   4.
 NSaved= 4 IEnMin= 4 EnMin= -5749.77332835639     IErMin= 4 ErrMin= 1.10D-01
 ErrMax= 1.10D-01  0.00D+00 EMaxC= 1.00D-01 BMatC= 1.51D+01 BMatP= 2.21D+01
 IDIUse=3 WtCom= 0.00D+00 WtEn= 1.00D+00
 EnCoef did   100 forward-backward iterations
 Coeff-Com: -0.365D+00 0.911D+00-0.877D-01 0.542D+00
 Coeff-En:   0.327D+00 0.672D-02 0.000D+00 0.666D+00
 Coeff:      0.327D+00 0.672D-02 0.000D+00 0.666D+00
 Gap=     0.000 Goal=   None    Shift=    0.000
 Gap=     0.048 Goal=   None    Shift=    0.000
 RMSDP=2.19D-03 MaxDP=2.03D-01 DE=-1.62D+01 OVMax= 4.85D-01

 Cycle   5  Pass 1  IDiag  1:
 RMSU=  1.20D-03    CP:  9.36D-01 -3.62D-02  2.10D-02  5.24D-01
 E= -5750.03715280856     Delta-E=       -0.263824452166 Rises=F Damp=F
 DIIS: error= 1.15D-01 at cycle   5 NSaved=   5.
 NSaved= 5 IEnMin= 5 EnMin= -5750.03715280856     IErMin= 4 ErrMin= 1.10D-01
 ErrMax= 1.15D-01  0.00D+00 EMaxC= 1.00D-01 BMatC= 1.15D+01 BMatP= 1.51D+01
 IDIUse=3 WtCom= 0.00D+00 WtEn= 1.00D+00
 EnCoef did    18 forward-backward iterations
 Coeff-Com: -0.453D+00 0.710D+00-0.502D-01 0.334D+00 0.459D+00
 Coeff-En:   0.149D-01 0.000D+00 0.000D+00 0.490D+00 0.495D+00
 Coeff:      0.149D-01 0.000D+00 0.000D+00 0.490D+00 0.495D+00
 Gap=     0.028 Goal=   None    Shift=    0.000
 Gap=     0.011 Goal=   None    Shift=    0.000
 RMSDP=1.64D-03 MaxDP=1.14D-01 DE=-2.64D-01 OVMax= 5.25D-01

 Cycle   6  Pass 1  IDiag  1:
 RMSU=  1.19D-03    CP:  9.45D-01 -4.45D-02  3.03D-02  6.75D-01  8.11D-02
 E= -5751.14459758337     Delta-E=       -1.107444774807 Rises=F Damp=F
 DIIS: error= 8.83D-02 at cycle   6 NSaved=   6.
 NSaved= 6 IEnMin= 6 EnMin= -5751.14459758337     IErMin= 6 ErrMin= 8.83D-02
 ErrMax= 8.83D-02  0.00D+00 EMaxC= 1.00D-01 BMatC= 8.59D+00 BMatP= 1.15D+01
 IDIUse=3 WtCom= 1.17D-01 WtEn= 8.83D-01
 EnCoef did     4 forward-backward iterations
 Coeff-Com: -0.380D+00 0.505D+00-0.215D-01 0.267D+00 0.368D+00 0.261D+00
 Coeff-En:   0.000D+00 0.000D+00 0.000D+00 0.398D+00 0.311D+00 0.291D+00
 Coeff:     -0.444D-01 0.590D-01-0.251D-02 0.383D+00 0.317D+00 0.288D+00
 Gap=     0.083 Goal=   None    Shift=    0.000
 Gap=     0.043 Goal=   None    Shift=    0.000
 RMSDP=1.21D-03 MaxDP=8.90D-02 DE=-1.11D+00 OVMax= 4.50D-01

 Cycle   7  Pass 1  IDiag  1:
 RMSU=  5.93D-04    CP:  9.34D-01 -1.69D-02  1.15D-01  8.54D-01  2.98D-01
                    CP:  2.62D-01
 E= -5752.39517640406     Delta-E=       -1.250578820698 Rises=F Damp=F
 DIIS: error= 2.76D-02 at cycle   7 NSaved=   7.
 NSaved= 7 IEnMin= 7 EnMin= -5752.39517640406     IErMin= 7 ErrMin= 2.76D-02
 ErrMax= 2.76D-02  0.00D+00 EMaxC= 1.00D-01 BMatC= 9.83D-01 BMatP= 8.59D+00
 IDIUse=3 WtCom= 7.24D-01 WtEn= 2.76D-01
 Coeff-Com: -0.117D+00 0.144D+00-0.152D-01 0.695D-01 0.139D+00 0.200D+00
 Coeff-Com:  0.579D+00
 Coeff-En:   0.000D+00 0.000D+00 0.000D+00 0.000D+00 0.000D+00 0.135D+00
 Coeff-En:   0.865D+00
 Coeff:     -0.849D-01 0.104D+00-0.110D-01 0.503D-01 0.101D+00 0.182D+00
 Coeff:      0.658D+00
 Gap=     0.050 Goal=   None    Shift=    0.000
 Gap=     0.113 Goal=   None    Shift=    0.000
 RMSDP=2.93D-04 MaxDP=2.66D-02 DE=-1.25D+00 OVMax= 1.29D-01

 Cycle   8  Pass 1  IDiag  1:
 RMSU=  2.47D-04    CP:  9.37D-01 -1.85D-02  9.97D-02  8.43D-01  2.54D-01
                    CP:  3.33D-01  8.34D-01
 E= -5752.50091139602     Delta-E=       -0.105734991961 Rises=F Damp=F
 DIIS: error= 8.92D-03 at cycle   8 NSaved=   8.
 NSaved= 8 IEnMin= 8 EnMin= -5752.50091139602     IErMin= 8 ErrMin= 8.92D-03
 ErrMax= 8.92D-03  0.00D+00 EMaxC= 1.00D-01 BMatC= 9.75D-02 BMatP= 9.83D-01
 IDIUse=3 WtCom= 9.11D-01 WtEn= 8.92D-02
 Coeff-Com: -0.229D-01 0.295D-01-0.167D-02-0.137D-01 0.396D-01 0.602D-01
 Coeff-Com:  0.339D+00 0.570D+00
 Coeff-En:   0.000D+00 0.000D+00 0.000D+00 0.000D+00 0.000D+00 0.000D+00
 Coeff-En:   0.110D+00 0.890D+00
 Coeff:     -0.208D-01 0.268D-01-0.153D-02-0.125D-01 0.361D-01 0.548D-01
 Coeff:      0.318D+00 0.599D+00
 Gap=     0.051 Goal=   None    Shift=    0.000
 Gap=     0.116 Goal=   None    Shift=    0.000
 RMSDP=1.65D-04 MaxDP=1.27D-02 DE=-1.06D-01 OVMax= 5.63D-02

 Cycle   9  Pass 1  IDiag  1:
 RMSU=  1.19D-04    CP:  9.37D-01 -1.46D-02  1.07D-01  8.32D-01  2.73D-01
                    CP:  2.81D-01  8.90D-01  7.02D-01
 E= -5752.51763312049     Delta-E=       -0.016721724467 Rises=F Damp=F
 DIIS: error= 4.15D-03 at cycle   9 NSaved=   9.
 NSaved= 9 IEnMin= 9 EnMin= -5752.51763312049     IErMin= 9 ErrMin= 4.15D-03
 ErrMax= 4.15D-03  0.00D+00 EMaxC= 1.00D-01 BMatC= 4.34D-02 BMatP= 9.75D-02
 IDIUse=3 WtCom= 9.59D-01 WtEn= 4.15D-02
 Coeff-Com:  0.143D-02-0.896D-03 0.154D-02-0.152D-01 0.127D-01-0.420D-02
 Coeff-Com:  0.317D-02 0.368D+00 0.634D+00
 Coeff-En:   0.000D+00 0.000D+00 0.000D+00 0.000D+00 0.000D+00 0.000D+00
 Coeff-En:   0.000D+00 0.260D+00 0.740D+00
 Coeff:      0.137D-02-0.859D-03 0.147D-02-0.146D-01 0.122D-01-0.403D-02
 Coeff:      0.304D-02 0.363D+00 0.638D+00
 Gap=     0.051 Goal=   None    Shift=    0.000
 Gap=     0.116 Goal=   None    Shift=    0.000
 RMSDP=8.22D-05 MaxDP=4.71D-03 DE=-1.67D-02 OVMax= 2.93D-02

 Cycle  10  Pass 1  IDiag  1:
 RMSU=  4.83D-05    CP:  9.36D-01 -1.90D-02  1.01D-01  8.31D-01  2.70D-01
                    CP:  2.87D-01  8.82D-01  8.63D-01  8.03D-01
 E= -5752.52624641964     Delta-E=       -0.008613299149 Rises=F Damp=F
 DIIS: error= 1.08D-03 at cycle  10 NSaved=  10.
 NSaved=10 IEnMin=10 EnMin= -5752.52624641964     IErMin=10 ErrMin= 1.08D-03
 ErrMax= 1.08D-03  0.00D+00 EMaxC= 1.00D-01 BMatC= 3.29D-03 BMatP= 4.34D-02
 IDIUse=3 WtCom= 9.89D-01 WtEn= 1.08D-02
 Coeff-Com:  0.442D-03-0.134D-02 0.106D-02-0.360D-02 0.668D-02-0.879D-02
 Coeff-Com: -0.395D-01 0.116D+00 0.345D+00 0.584D+00
 Coeff-En:   0.000D+00 0.000D+00 0.000D+00 0.000D+00 0.000D+00 0.000D+00
 Coeff-En:   0.000D+00 0.000D+00 0.000D+00 0.100D+01
 Coeff:      0.437D-03-0.133D-02 0.105D-02-0.357D-02 0.661D-02-0.870D-02
 Coeff:     -0.391D-01 0.114D+00 0.342D+00 0.588D+00
 Gap=     0.054 Goal=   None    Shift=    0.000
 Gap=     0.116 Goal=   None    Shift=    0.000
 RMSDP=4.17D-05 MaxDP=3.59D-03 DE=-8.61D-03 OVMax= 1.68D-02

 Cycle  11  Pass 1  IDiag  1:
 RMSU=  2.28D-05    CP:  9.37D-01 -1.64D-02  1.03D-01  8.30D-01  2.75D-01
                    CP:  2.81D-01  8.77D-01  8.87D-01  9.29D-01  6.63D-01
 E= -5752.52687935209     Delta-E=       -0.000632932453 Rises=F Damp=F
 DIIS: error= 7.58D-04 at cycle  11 NSaved=  11.
 NSaved=11 IEnMin=11 EnMin= -5752.52687935209     IErMin=11 ErrMin= 7.58D-04
 ErrMax= 7.58D-04  0.00D+00 EMaxC= 1.00D-01 BMatC= 8.69D-04 BMatP= 3.29D-03
 IDIUse=3 WtCom= 9.92D-01 WtEn= 7.58D-03
 Coeff-Com:  0.243D-05-0.184D-03 0.159D-03 0.983D-03 0.232D-02-0.607D-02
 Coeff-Com: -0.171D-01 0.112D-01 0.100D+00 0.352D+00 0.557D+00
 Coeff-En:   0.000D+00 0.000D+00 0.000D+00 0.000D+00 0.000D+00 0.000D+00
 Coeff-En:   0.000D+00 0.000D+00 0.000D+00 0.127D+00 0.873D+00
 Coeff:      0.241D-05-0.183D-03 0.157D-03 0.975D-03 0.231D-02-0.603D-02
 Coeff:     -0.169D-01 0.111D-01 0.993D-01 0.350D+00 0.559D+00
 Gap=     0.053 Goal=   None    Shift=    0.000
 Gap=     0.117 Goal=   None    Shift=    0.000
 RMSDP=1.53D-05 MaxDP=1.09D-03 DE=-6.33D-04 OVMax= 6.82D-03

 Cycle  12  Pass 1  IDiag  1:
 RMSU=  9.25D-06    CP:  9.37D-01 -1.63D-02  1.04D-01  8.29D-01  2.75D-01
                    CP:  2.77D-01  8.82D-01  8.72D-01  9.28D-01  8.13D-01
                    CP:  7.75D-01
 E= -5752.52707679721     Delta-E=       -0.000197445119 Rises=F Damp=F
 DIIS: error= 3.00D-04 at cycle  12 NSaved=  12.
 NSaved=12 IEnMin=12 EnMin= -5752.52707679721     IErMin=12 ErrMin= 3.00D-04
 ErrMax= 3.00D-04  0.00D+00 EMaxC= 1.00D-01 BMatC= 1.40D-04 BMatP= 8.69D-04
 IDIUse=3 WtCom= 9.97D-01 WtEn= 3.00D-03
 Coeff-Com:  0.361D-03-0.510D-03-0.472D-04 0.135D-02-0.530D-03-0.129D-02
 Coeff-Com:  0.366D-02-0.165D-01-0.220D-01 0.451D-01 0.275D+00 0.716D+00
 Coeff-En:   0.000D+00 0.000D+00 0.000D+00 0.000D+00 0.000D+00 0.000D+00
 Coeff-En:   0.000D+00 0.000D+00 0.000D+00 0.000D+00 0.000D+00 0.100D+01
 Coeff:      0.360D-03-0.508D-03-0.471D-04 0.135D-02-0.528D-03-0.129D-02
 Coeff:      0.364D-02-0.164D-01-0.220D-01 0.450D-01 0.274D+00 0.717D+00
 Gap=     0.053 Goal=   None    Shift=    0.000
 Gap=     0.117 Goal=   None    Shift=    0.000
 RMSDP=5.54D-06 MaxDP=4.54D-04 DE=-1.97D-04 OVMax= 2.28D-03

 Cycle  13  Pass 1  IDiag  1:
 RMSU=  3.50D-06    CP:  9.37D-01 -1.61D-02  1.04D-01  8.30D-01  2.76D-01
                    CP:  2.77D-01  8.81D-01  8.72D-01  9.41D-01  8.22D-01
                    CP:  9.01D-01  8.34D-01
 E= -5752.52709840438     Delta-E=       -0.000021607164 Rises=F Damp=F
 DIIS: error= 1.49D-04 at cycle  13 NSaved=  13.
 NSaved=13 IEnMin=13 EnMin= -5752.52709840438     IErMin=13 ErrMin= 1.49D-04
 ErrMax= 1.49D-04  0.00D+00 EMaxC= 1.00D-01 BMatC= 4.25D-05 BMatP= 1.40D-04
 IDIUse=3 WtCom= 9.99D-01 WtEn= 1.49D-03
 Coeff-Com: -0.648D-04 0.204D-03-0.375D-04 0.746D-03-0.674D-03-0.107D-03
 Coeff-Com:  0.467D-02-0.854D-02-0.193D-01-0.232D-01 0.685D-01 0.373D+00
 Coeff-Com:  0.605D+00
 Coeff-En:   0.000D+00 0.000D+00 0.000D+00 0.000D+00 0.000D+00 0.000D+00
 Coeff-En:   0.000D+00 0.000D+00 0.000D+00 0.000D+00 0.000D+00 0.000D+00
 Coeff-En:   0.100D+01
 Coeff:     -0.647D-04 0.203D-03-0.375D-04 0.745D-03-0.673D-03-0.107D-03
 Coeff:      0.467D-02-0.853D-02-0.193D-01-0.231D-01 0.684D-01 0.372D+00
 Coeff:      0.606D+00
 Gap=     0.053 Goal=   None    Shift=    0.000
 Gap=     0.117 Goal=   None    Shift=    0.000
 RMSDP=2.51D-06 MaxDP=1.92D-04 DE=-2.16D-05 OVMax= 5.63D-04

 Cycle  14  Pass 1  IDiag  1:
 RMSU=  1.90D-06    CP:  9.37D-01 -1.60D-02  1.04D-01  8.29D-01  2.75D-01
                    CP:  2.76D-01  8.81D-01  8.71D-01  9.41D-01  8.28D-01
                    CP:  9.11D-01  9.21D-01  8.84D-01
 E= -5752.52710562830     Delta-E=       -0.000007223920 Rises=F Damp=F
 DIIS: error= 5.43D-05 at cycle  14 NSaved=  14.
 NSaved=14 IEnMin=14 EnMin= -5752.52710562830     IErMin=14 ErrMin= 5.43D-05
 ErrMax= 5.43D-05  0.00D+00 EMaxC= 1.00D-01 BMatC= 8.05D-06 BMatP= 4.25D-05
 IDIUse=1 WtCom= 1.00D+00 WtEn= 0.00D+00
 Coeff-Com: -0.125D-03 0.217D-03-0.491D-05 0.176D-03-0.202D-03 0.424D-04
 Coeff-Com:  0.114D-02 0.388D-03-0.222D-03-0.226D-01-0.343D-01-0.345D-02
 Coeff-Com:  0.330D+00 0.729D+00
 Coeff:     -0.125D-03 0.217D-03-0.491D-05 0.176D-03-0.202D-03 0.424D-04
 Coeff:      0.114D-02 0.388D-03-0.222D-03-0.226D-01-0.343D-01-0.345D-02
 Coeff:      0.330D+00 0.729D+00
 Gap=     0.053 Goal=   None    Shift=    0.000
 Gap=     0.117 Goal=   None    Shift=    0.000
 RMSDP=1.73D-06 MaxDP=1.19D-04 DE=-7.22D-06 OVMax= 3.47D-04

 Cycle  15  Pass 1  IDiag  1:
 RMSU=  8.49D-07    CP:  9.37D-01 -1.59D-02  1.05D-01  8.29D-01  2.75D-01
                    CP:  2.76D-01  8.81D-01  8.70D-01  9.44D-01  8.23D-01
                    CP:  9.21D-01  9.39D-01  1.07D+00  9.53D-01
 E= -5752.52710775442     Delta-E=       -0.000002126118 Rises=F Damp=F
 DIIS: error= 3.08D-05 at cycle  15 NSaved=  15.
 NSaved=15 IEnMin=15 EnMin= -5752.52710775442     IErMin=15 ErrMin= 3.08D-05
 ErrMax= 3.08D-05  0.00D+00 EMaxC= 1.00D-01 BMatC= 1.34D-06 BMatP= 8.05D-06
 IDIUse=1 WtCom= 1.00D+00 WtEn= 0.00D+00
 Coeff-Com: -0.525D-04 0.675D-04 0.203D-05 0.466D-05-0.945D-05 0.486D-04
 Coeff-Com: -0.103D-03 0.143D-02 0.309D-02-0.896D-02-0.296D-01-0.648D-01
 Coeff-Com:  0.774D-01 0.414D+00 0.607D+00
 Coeff:     -0.525D-04 0.675D-04 0.203D-05 0.466D-05-0.945D-05 0.486D-04
 Coeff:     -0.103D-03 0.143D-02 0.309D-02-0.896D-02-0.296D-01-0.648D-01
 Coeff:      0.774D-01 0.414D+00 0.607D+00
 Gap=     0.053 Goal=   None    Shift=    0.000
 Gap=     0.117 Goal=   None    Shift=    0.000
 RMSDP=5.94D-07 MaxDP=5.85D-05 DE=-2.13D-06 OVMax= 2.05D-04

 Cycle  16  Pass 1  IDiag  1:
 RMSU=  4.17D-07    CP:  9.37D-01 -1.59D-02  1.05D-01  8.29D-01  2.75D-01
                    CP:  2.76D-01  8.81D-01  8.70D-01  9.44D-01  8.23D-01
                    CP:  9.20D-01  9.52D-01  1.10D+00  1.12D+00  9.53D-01
 E= -5752.52710827362     Delta-E=       -0.000000519205 Rises=F Damp=F
 DIIS: error= 1.34D-05 at cycle  16 NSaved=  16.
 NSaved=16 IEnMin=16 EnMin= -5752.52710827362     IErMin=16 ErrMin= 1.34D-05
 ErrMax= 1.34D-05  0.00D+00 EMaxC= 1.00D-01 BMatC= 3.52D-07 BMatP= 1.34D-06
 IDIUse=1 WtCom= 1.00D+00 WtEn= 0.00D+00
 Coeff-Com:  0.108D-04-0.287D-04 0.119D-05-0.476D-04 0.456D-04 0.271D-04
 Coeff-Com: -0.274D-03 0.371D-03 0.922D-03 0.113D-02-0.460D-02-0.289D-01
 Coeff-Com: -0.527D-01 0.310D-02 0.350D+00 0.731D+00
 Coeff:      0.108D-04-0.287D-04 0.119D-05-0.476D-04 0.456D-04 0.271D-04
 Coeff:     -0.274D-03 0.371D-03 0.922D-03 0.113D-02-0.460D-02-0.289D-01
 Coeff:     -0.527D-01 0.310D-02 0.350D+00 0.731D+00
 Gap=     0.053 Goal=   None    Shift=    0.000
 Gap=     0.117 Goal=   None    Shift=    0.000
 RMSDP=3.37D-07 MaxDP=4.12D-05 DE=-5.19D-07 OVMax= 1.31D-04

 Cycle  17  Pass 1  IDiag  1:
 RMSU=  2.52D-07    CP:  9.37D-01 -1.59D-02  1.05D-01  8.29D-01  2.75D-01
                    CP:  2.76D-01  8.81D-01  8.70D-01  9.44D-01  8.23D-01
                    CP:  9.21D-01  9.51D-01  1.13D+00  1.15D+00  1.15D+00
                    CP:  1.04D+00
 E= -5752.52710848668     Delta-E=       -0.000000213058 Rises=F Damp=F
 DIIS: error= 8.32D-06 at cycle  17 NSaved=  17.
 NSaved=17 IEnMin=17 EnMin= -5752.52710848668     IErMin=17 ErrMin= 8.32D-06
 ErrMax= 8.32D-06  0.00D+00 EMaxC= 1.00D-01 BMatC= 9.46D-08 BMatP= 3.52D-07
 IDIUse=1 WtCom= 1.00D+00 WtEn= 0.00D+00
 Coeff-Com:  0.365D-05-0.570D-05-0.877D-06-0.296D-04 0.274D-04 0.157D-04
 Coeff-Com: -0.873D-04-0.266D-03-0.701D-03 0.252D-02 0.512D-02 0.498D-02
 Coeff-Com: -0.364D-01-0.988D-01-0.343D-01 0.249D+00 0.909D+00
 Coeff:      0.365D-05-0.570D-05-0.877D-06-0.296D-04 0.274D-04 0.157D-04
 Coeff:     -0.873D-04-0.266D-03-0.701D-03 0.252D-02 0.512D-02 0.498D-02
 Coeff:     -0.364D-01-0.988D-01-0.343D-01 0.249D+00 0.909D+00
 Gap=     0.053 Goal=   None    Shift=    0.000
 Gap=     0.117 Goal=   None    Shift=    0.000
 RMSDP=2.34D-07 MaxDP=2.57D-05 DE=-2.13D-07 OVMax= 9.89D-05

 Cycle  18  Pass 1  IDiag  1:
 RMSU=  1.34D-07    CP:  9.37D-01 -1.59D-02  1.05D-01  8.29D-01  2.75D-01
                    CP:  2.76D-01  8.81D-01  8.70D-01  9.44D-01  8.24D-01
                    CP:  9.22D-01  9.53D-01  1.14D+00  1.19D+00  1.25D+00
                    CP:  1.35D+00  1.23D+00
 E= -5752.52710855106     Delta-E=       -0.000000064385 Rises=F Damp=F
 DIIS: error= 7.81D-06 at cycle  18 NSaved=  18.
 NSaved=18 IEnMin=18 EnMin= -5752.52710855106     IErMin=18 ErrMin= 7.81D-06
 ErrMax= 7.81D-06  0.00D+00 EMaxC= 1.00D-01 BMatC= 7.21D-08 BMatP= 9.46D-08
 IDIUse=1 WtCom= 1.00D+00 WtEn= 0.00D+00
 Coeff-Com:  0.117D-06 0.423D-05-0.150D-05-0.904D-05 0.540D-05 0.810D-05
 Coeff-Com: -0.107D-04-0.310D-03-0.837D-03 0.140D-02 0.493D-02 0.138D-01
 Coeff-Com: -0.543D-02-0.685D-01-0.158D+00-0.109D+00 0.665D+00 0.656D+00
 Coeff:      0.117D-06 0.423D-05-0.150D-05-0.904D-05 0.540D-05 0.810D-05
 Coeff:     -0.107D-04-0.310D-03-0.837D-03 0.140D-02 0.493D-02 0.138D-01
 Coeff:     -0.543D-02-0.685D-01-0.158D+00-0.109D+00 0.665D+00 0.656D+00
 Gap=     0.053 Goal=   None    Shift=    0.000
 Gap=     0.117 Goal=   None    Shift=    0.000
 RMSDP=1.47D-07 MaxDP=1.50D-05 DE=-6.44D-08 OVMax= 6.30D-05

 Cycle  19  Pass 1  IDiag  1:
 RMSU=  7.38D-08    CP:  9.37D-01 -1.59D-02  1.05D-01  8.29D-01  2.75D-01
                    CP:  2.76D-01  8.81D-01  8.70D-01  9.44D-01  8.24D-01
                    CP:  9.22D-01  9.54D-01  1.15D+00  1.20D+00  1.32D+00
                    CP:  1.47D+00  1.58D+00  9.05D-01
 E= -5752.52710858052     Delta-E=       -0.000000029453 Rises=F Damp=F
 DIIS: error= 2.25D-06 at cycle  19 NSaved=  19.
 NSaved=19 IEnMin=19 EnMin= -5752.52710858052     IErMin=19 ErrMin= 2.25D-06
 ErrMax= 2.25D-06  0.00D+00 EMaxC= 1.00D-01 BMatC= 1.07D-08 BMatP= 7.21D-08
 IDIUse=1 WtCom= 1.00D+00 WtEn= 0.00D+00
 Coeff-Com: -0.862D-06 0.206D-05-0.380D-06 0.491D-06-0.101D-05 0.512D-05
 Coeff-Com: -0.340D-04-0.532D-04-0.136D-03 0.234D-03 0.943D-03 0.483D-02
 Coeff-Com:  0.517D-02-0.793D-02-0.612D-01-0.106D+00 0.806D-01 0.293D+00
 Coeff-Com:  0.790D+00
 Coeff:     -0.862D-06 0.206D-05-0.380D-06 0.491D-06-0.101D-05 0.512D-05
 Coeff:     -0.340D-04-0.532D-04-0.136D-03 0.234D-03 0.943D-03 0.483D-02
 Coeff:      0.517D-02-0.793D-02-0.612D-01-0.106D+00 0.806D-01 0.293D+00
 Coeff:      0.790D+00
 Gap=     0.053 Goal=   None    Shift=    0.000
 Gap=     0.117 Goal=   None    Shift=    0.000
 RMSDP=6.23D-08 MaxDP=5.83D-06 DE=-2.95D-08 OVMax= 2.34D-05

 Cycle  20  Pass 1  IDiag  1:
 RMSU=  2.81D-08    CP:  9.37D-01 -1.59D-02  1.05D-01  8.29D-01  2.75D-01
                    CP:  2.76D-01  8.81D-01  8.70D-01  9.44D-01  8.24D-01
                    CP:  9.22D-01  9.55D-01  1.15D+00  1.20D+00  1.33D+00
                    CP:  1.53D+00  1.69D+00  1.07D+00  9.70D-01
 E= -5752.52710858423     Delta-E=       -0.000000003714 Rises=F Damp=F
 DIIS: error= 7.68D-07 at cycle  20 NSaved=  20.
 NSaved=20 IEnMin=20 EnMin= -5752.52710858423     IErMin=20 ErrMin= 7.68D-07
 ErrMax= 7.68D-07  0.00D+00 EMaxC= 1.00D-01 BMatC= 1.45D-09 BMatP= 1.07D-08
 IDIUse=1 WtCom= 1.00D+00 WtEn= 0.00D+00
 Coeff-Com:  0.578D-06-0.104D-05 0.416D-07 0.114D-05-0.138D-05 0.205D-05
 Coeff-Com: -0.220D-04 0.517D-05 0.168D-04-0.912D-05-0.187D-04 0.123D-02
 Coeff-Com:  0.357D-02 0.300D-02-0.177D-01-0.493D-01-0.287D-01 0.971D-01
 Coeff-Com:  0.461D+00 0.530D+00
 Coeff:      0.578D-06-0.104D-05 0.416D-07 0.114D-05-0.138D-05 0.205D-05
 Coeff:     -0.220D-04 0.517D-05 0.168D-04-0.912D-05-0.187D-04 0.123D-02
 Coeff:      0.357D-02 0.300D-02-0.177D-01-0.493D-01-0.287D-01 0.971D-01
 Coeff:      0.461D+00 0.530D+00
 Gap=     0.053 Goal=   None    Shift=    0.000
 Gap=     0.117 Goal=   None    Shift=    0.000
 RMSDP=1.79D-08 MaxDP=1.57D-06 DE=-3.71D-09 OVMax= 4.97D-06

 Cycle  21  Pass 1  IDiag  1:
 Restarting incremental Fock formation.
 E= -5752.52710858400     Delta-E=        0.000000000229 Rises=F Damp=F
 DIIS: error= 3.34D-07 at cycle  21 NSaved=  20.
 NSaved=20 IEnMin=19 EnMin= -5752.52710858423     IErMin=20 ErrMin= 3.34D-07
 ErrMax= 3.34D-07  0.00D+00 EMaxC= 1.00D-01 BMatC= 2.05D-10 BMatP= 1.45D-09
 IDIUse=1 WtCom= 1.00D+00 WtEn= 0.00D+00
 Coeff-Com:  0.266D-06-0.496D-06 0.870D-06-0.151D-06-0.107D-05 0.348D-05
 Coeff-Com:  0.104D-04 0.241D-04-0.446D-04-0.155D-03-0.510D-03-0.430D-05
 Coeff-Com:  0.186D-02 0.528D-02 0.368D-02-0.215D-01-0.206D-01 0.180D-02
 Coeff-Com:  0.182D+00 0.848D+00
 Coeff:      0.266D-06-0.496D-06 0.870D-06-0.151D-06-0.107D-05 0.348D-05
 Coeff:      0.104D-04 0.241D-04-0.446D-04-0.155D-03-0.510D-03-0.430D-05
 Coeff:      0.186D-02 0.528D-02 0.368D-02-0.215D-01-0.206D-01 0.180D-02
 Coeff:      0.182D+00 0.848D+00
 Gap=     0.053 Goal=   None    Shift=    0.000
 Gap=     0.117 Goal=   None    Shift=    0.000
 RMSDP=7.29D-09 MaxDP=6.10D-07 DE= 2.29D-10 OVMax= 2.60D-06

 Error on total polarization charges =  0.01534
 SCF Done:  E(UTPSSh) =  -5752.52710858     A.U. after   21 cycles
            NFock= 21  Conv=0.73D-08     -V/T= 2.0021
 <Sx>= 0.0000 <Sy>= 0.0000 <Sz>= 2.5000 <S**2>= 8.7688 S= 2.5031
 <L.S>= 0.000000000000E+00
 KE= 5.740568041282D+03 PE=-3.855183762992D+04 EE= 1.450134488241D+04
 Annihilation of the first spin contaminant:
 S**2 before annihilation     8.7688,   after     8.7501
 Leave Link  502 at Fri Aug 30 17:38:41 2024, MaxMem= 11953766400 cpu:           52442.8 elap:            2194.7
 (Enter /opt/gaussian16/g16/l508.exe)
 QCSCF skips out because SCF is already converged.
 Leave Link  508 at Fri Aug 30 17:38:42 2024, MaxMem= 11953766400 cpu:               0.0 elap:               0.0
 (Enter /opt/gaussian16/g16/l601.exe)
 Copying SCF densities to generalized density rwf, IOpCl= 1 IROHF=0.

 **********************************************************************

            Population analysis using the SCF density.

 **********************************************************************

 Orbital symmetries:
 Alpha Orbitals:
       Occupied  (B3U) (AG) (B3U) (AG) (B1G) (B2U) (B2G) (B1U)
                 (B3U) (AG) (B3U) (AG) (B3U) (AG) (B2G) (B1U) (B3U)
                 (B1G) (B2U) (AG) (B3U) (AG) (B3U) (AG) (B2G) (B1U)
                 (B3U) (B2G) (AG) (B1U) (B3U) (B1G) (B2U) (AG)
                 (AG) (B2U) (B3U) (B1G) (B2G) (B3U) (B1U) (AG)
                 (B3U) (B1G) (AG) (B2U) (B2U) (AG) (B1G) (B3U)
                 (B3U) (AG) (B2G) (B1U) (B3U) (AG) (B1G) (B3U)
                 (B2U) (AG) (B2G) (B1U) (B3U) (AG) (B2G) (B1U)
                 (B3U) (AG) (B3U) (B2G) (B1U) (AG) (B3U) (B1G)
                 (AG) (B2U) (B3U) (AG) (B1G) (B2U) (B2G) (B1U)
                 (B3U) (AG) (AG) (B3U) (AG) (B2G) (B1U) (B2U) (B3U)
                 (B1G) (AG) (B3U) (AG) (B3U) (B2U) (AG) (B2U) (B1U)
                 (B2G) (B3U) (AG) (B2G) (B1U) (B3U) (AG) (B1G)
                 (B3U) (AG) (AG) (B3U) (B1G) (B3U) (B1U) (B2G)
                 (B2U) (AG) (B1U) (B2G) (B1G) (B2U) (AG) (B3U)
                 (AG) (AG) (B3U) (B1U) (B2G) (B2U) (B3U) (AG) (B3U)
                 (AG) (B1G) (B1U) (B2G) (B3U) (B1G) (AG) (B3U)
                 (AG) (B2U) (B3U) (B2U) (B1U) (B2G) (B1U) (B2G)
                 (AG) (B3U) (AG) (AG) (B1G) (B3U) (AG) (B3U) (AG)
                 (B2U) (B1U) (B2U) (B3U) (B1G) (B2G) (B1U) (B2G)
                 (B1U) (B3U) (B2U) (B1G) (AG) (B3U) (AG) (B2G)
                 (B3U) (B1U) (B3G) (AG) (AU) (B1G) (B2U) (B3U)
                 (AG) (B3G) (B2G) (AG) (B2U) (B1U) (B3U) (B2G)
                 (AU) (B1U) (B3U) (B1G) (B2U) (B1G) (AG) (B3U)
                 (B1U) (B2G) (AG) (B3U) (B1G) (B2G) (B2U) (B1U)
                 (AG) (B2G) (B3U) (AG) (AG) (B3U) (B3G) (B3U) (B3G)
                 (B1U) (B1U) (B2G) (B1G) (B2U) (AU) (B3G) (AU)
                 (AG) (B2U) (B1G) (B3G) (B2U) (B1G) (AU) (B1U)
                 (B2G) (B2U) (B3G) (B1G) (AU) (B2G) (B1U) (B2U)
                 (B1G) (AU) (B3G) (AU) (B3G) (B2G) (AG) (B3U) (B3U)
                 (AG) (B1U)
       Virtual   (B2U) (B1G) (AU) (B3G) (AU) (B1U) (B3G) (B2G)
                 (B3G) (AU) (B2U) (B1G) (B3G) (B1G) (B2U) (B1U)
                 (AU) (B2G) (B3G) (AU) (AG) (AU) (B3U) (B1U) (AG)
                 (AG) (B2U) (B2G) (B3U) (B1U) (B1G) (B3U) (AG)
                 (B2U) (B1G) (AG) (B2G) (B2G) (B3G) (B1U) (B2U)
                 (AG) (B1U) (B3U) (B3U) (AG) (B1G) (AG) (B1U) (AU)
                 (B3G) (B3U) (B2U) (B2G) (B3U) (AG) (B2U) (B1G)
                 (B3U) (B2G) (B2U) (B1U) (B1G) (AG) (B3U) (AU)
                 (B2G) (B2G) (AG) (B1U) (B3U) (AG) (B3U) (B3U)
                 (AG) (B1G) (AG) (B2G) (B3U) (B1G) (B3U) (B2U)
                 (B2U) (B1U) (AG) (B2G) (AG) (B1U) (B2G) (B3U)
                 (AG) (B3U) (AG) (B2U) (B1U) (B3U) (B1G) (B2G)
                 (AG) (AG) (B1U) (B3U) (B2G) (AG) (B1G) (B3U) (B2U)
                 (B3U) (AG) (B2G) (B1U) (B2U) (B3U) (B1G) (AG)
                 (B3U) (B2U) (AG) (B1U) (B1G) (B2G) (B3U) (B3G)
                 (B3U) (B1U) (AG) (B2G) (AG) (AU) (B3U) (B1U) (AG)
                 (B2G) (B1G) (B3U) (AG) (B3U) (B1G) (B1U) (B2U)
                 (B3U) (B2G) (AG) (B1U) (B3U) (B3G) (B2U) (AG)
                 (B1G) (B1U) (B2U) (B2G) (B1G) (AU) (AG) (B1U)
                 (B3G) (B2U) (B2G) (B1U) (B1G) (B3U) (B2G) (AG)
                 (B2U) (B3U) (AU) (B2G) (B2U) (B3G) (AG) (B3U)
                 (B1G) (AG) (B3U) (B1U) (AG) (B3G) (B2G) (B2U)
                 (B1G) (B3U) (AU) (B1U) (B3U) (AG) (B2U) (B1G)
                 (B1U) (B2G) (AG) (B2U) (B1G) (AG) (AU) (B1U) (B2G)
                 (AG) (B3U) (B1U) (B3G) (B3U) (B2U) (B1G) (AG)
                 (B2U) (B3U) (B3G) (AU) (B3U) (B1U) (AG) (B2G)
                 (B3G) (B1G) (B2U) (B1G) (B2G) (B1U) (B2U) (AU)
                 (AG) (B2G) (B1U) (B2U) (AU) (B3G) (B1G) (B3U)
                 (AG) (AU) (B3G) (B1G) (B1U) (B3U) (B3U) (AG) (B2G)
                 (AG) (B2G) (B1G) (B2U) (B2G) (B1G) (B3U) (AG)
                 (B2U) (B1U) (B1U) (B3U) (AU) (B2U) (B3G) (AG)
                 (B2G) (B3U) (B1G) (B3G) (AG) (B1U) (B1G) (B3U)
                 (AU) (B1U) (B2U) (AG) (B2G) (B3U) (AG) (B2G) (B1G)
                 (B3U) (B2U) (B1U) (AG) (AU) (B3U) (B2U) (B3G)
                 (B3U) (AG) (B1U) (AG) (B3G) (B3U) (B1U) (B1G)
                 (B2G) (AU) (AG) (AG) (B3U) (B2G) (B3U) (B2G) (B1G)
                 (B3U) (B1U) (B2G) (AG) (B3U) (AG) (B1G) (B2U)
                 (B3U) (B1G) (B1U) (AG) (B2G) (B2U) (B3U) (B2G)
                 (AG) (B1U) (B3U) (B3U) (B1U) (B2U) (AG) (B2G)
                 (B1G) (AG) (B1U) (AG) (B2G) (AU) (B3U) (B3U) (B2U)
                 (AG) (B3U) (B1G) (B2G) (AG) (B3U) (B1U) (B1U)
                 (B2U) (AG) (B2U) (B1G) (B3U) (B2G) (B3U) (B1G)
                 (B1U) (B3U) (B1G) (AG) (B2U) (B2G) (AG) (B1U)
                 (AG) (B2U) (B3U) (B1U) (B2G) (B3G) (AG) (B1G)
                 (AG) (B3U) (B3U) (B1U) (B3U) (B1G) (B2U) (AG)
                 (B2G) (AU) (B1U) (AG) (B2G) (B3G) (B3U) (B1G)
                 (AG) (B3G) (B1U) (AU) (B2U) (B3G) (B3U) (B2G)
                 (B1G) (B2G) (B2U) (AU) (AG) (B3G) (B1U) (B1U)
                 (B3U) (B2G) (B3U) (B1G) (AG) (B3U) (B1G) (B2U)
                 (AU) (B2G) (B2U) (AU) (B3G) (B1G) (B1U) (AU) (AG)
                 (B3U) (B2G) (B2U) (B3G) (AG) (B1U) (AU) (B3U)
                 (B3G) (B2G) (B2U) (B3G) (B1U) (B1G) (B2G) (B2U)
                 (B1U) (B3G) (B3G) (B1G) (AU) (AG) (B2U) (AG) (B3U)
                 (AG) (B3U) (B2G) (AU) (B2U) (B3U) (B3G) (AG) (AU)
                 (B1U) (B1G) (AU) (B1U) (AG) (B2G) (B3G) (B3U)
                 (B1G) (B3G) (B2U) (AU) (AG) (B2G) (B3U) (B3G)
                 (B3U) (AU) (B1U) (B1G) (AG) (B2G) (B2U) (B1G)
                 (B3U) (B2U) (B1U) (AG) (B2U) (B1G) (B1U) (B3U)
                 (AG) (B1G) (B2G) (B2G) (B3U) (B1U) (B2U) (B3G)
                 (AG) (AU) (B1G) (B3U) (AG) (B2G) (B1U) (B3U) (B1G)
                 (AG) (AG) (B2U) (B2G) (B3U) (B1U) (B2U) (B1G)
                 (B2U) (B3U) (B2G) (B1U) (AG) (AU) (AG) (B3U) (B2G)
                 (AG) (AG) (B1G) (B2U) (B3U) (B1U) (B2G) (AG) (B3U)
                 (B3U) (B1G) (AG) (B2G) (B1U) (B3U) (B1U) (AG)
                 (B1G) (B3U) (AG) (B2G) (B2U) (B3U) (B3G) (AU)
                 (B1G) (B2U) (B2U) (AG) (B3G) (B3G) (AU) (B1U)
                 (B1G) (B2U) (AU) (B3G) (B3U) (B3G) (B1G) (B1U)
                 (AG) (B2G) (AU) (B1G) (B2U) (B3U) (B2U) (B1U)
                 (B2G) (AU) (B1G) (B3G) (B1U) (B2G) (AG) (B3U)
                 (B3U) (AG) (AU) (AG) (B2U) (B3U) (AG) (B1U) (B2U)
                 (B2G) (B1G) (B1U) (B1G) (B2G) (B2U) (AG) (B3U)
                 (B2G) (B3U) (AG) (B2U) (B1U) (B3U) (B3G) (AU)
                 (B3U) (B1G) (AG) (B1U) (B2G) (B1U) (B3U) (B3G)
                 (B2G) (AG) (AU) (B2G) (AG) (B1G) (B2U) (B3U) (B1U)
                 (B3U) (B3G) (B1G) (B2U) (AU) (B1U) (B3G) (B1G)
                 (AG) (B2G) (AU) (B2U) (B2G) (B2U) (B1G) (B3U)
                 (B3G) (AG) (AU) (B2U) (B3U) (B1U) (B1G) (AG) (B2G)
                 (B3U) (B2U) (B1G) (B2G) (AG) (B1U) (AG) (B3G)
                 (B3U) (B2G) (B1U) (B1G) (B1U) (B2U) (AG) (B3U)
                 (AU) (AG) (B2U) (B1G) (B3U) (B2G) (B1U) (B2G)
                 (B3G) (AU) (B3U) (AG) (B1G) (B3U) (B1U) (B3G)
                 (B2U) (B3U) (B1G) (AG) (B3U) (AG) (B1U) (B2G)
                 (B3U) (AG) (B1G) (AG) (B1U) (B2G) (B3U) (B2U)
                 (B1G) (B3G) (AU) (AG) (AU) (B2U) (B2G) (B1U) (B3U)
                 (B1U) (B2G) (B2U) (AG) (B2G) (B1U) (B3G) (B1U)
                 (AG) (B1G) (B2G) (B3U) (B2U) (B3G) (AU) (AG) (B1G)
                 (B2U) (B3U) (AU) (B3G) (B3U) (B1G) (B2U) (B2G)
                 (AU) (AG) (B1U) (B2G) (B2G) (B3U) (B1G) (B1U)
                 (B3G) (B3G) (AU) (B2U) (AG) (B1U) (AG) (B1G) (B2U)
                 (AU) (B2G) (B3G) (AU) (B2U) (B3U) (B1G) (AG) (B3U)
                 (B2U) (AG) (B3U) (B2U) (AU) (B1U) (AG) (B3U) (B2G)
                 (AG) (B2G) (B3G) (B1U) (B1G) (B3U) (AG) (B2U)
                 (B3U) (B1G) (B1U) (B1G) (B2G) (B2G) (AG) (B3U)
                 (B1U) (AG) (B1G) (B2G) (B2U) (B1U) (B2G) (B3U)
                 (AG) (B2U) (B3G) (AU) (AG) (B3G) (B1U) (B3U) (B3U)
                 (AG) (B1G) (B3U) (AG) (AU) (B1G) (B3U) (B1U) (B2G)
                 (B2U) (B3U) (B1G) (AU) (B3G) (AG) (B1U) (B3U)
                 (B2G) (B3U) (B2U) (AG) (AU) (B3G) (B2G) (B1U)
                 (B1G) (B1U) (B3U) (B2G) (B1G) (B2U) (B3G) (AG)
                 (B3U) (B1U) (AG) (B1U) (B1G) (B2U) (AU) (B3G)
                 (B2G) (B3U) (B2U) (B1G) (AG) (AU) (B2U) (B3G)
                 (B2G) (B1G) (AG) (B1U) (B3U) (AU) (B2G) (B2U)
                 (AG) (B3U) (AG) (B2G) (B2U) (B1G) (B1U) (AG) (B1G)
                 (B2G) (B3U) (B1U) (AG) (B3G) (AG) (B3U) (AG) (B3U)
                 (B2G) (B2U) (B3U) (AG) (B1U) (AU) (B3G) (B1G)
                 (B2G) (AG) (B1U) (B3U) (AU) (B3U) (B2U) (B3G)
                 (AG) (AG) (B3U) (B2U) (B1G) (B1U) (AU) (B3U) (AG)
                 (B3G) (B1G) (B2U) (B3U) (B1U) (B2U) (B2G) (B1U)
                 (AG) (B1G) (B2G) (AU) (B1U) (AG) (B1G) (B3U) (AU)
                 (B3U) (B2G) (B3G) (B1U) (B2G) (AG) (B3U) (B2U)
                 (B2G) (AU) (B3G) (B1G) (B3U) (B1U) (AG) (B3U)
                 (B3G) (B1G) (AU) (B2G) (B2U) (B1U) (B2G) (B1G)
                 (B1U) (AG) (B2U) (B3U) (AU) (B2U) (AG) (B1G) (B3U)
                 (B2G) (AG) (B1G) (B3U) (B1U) (B2G) (B3G) (B1U)
                 (AG) (AU) (B2G) (B3G) (B2U) (AU) (B3G) (B1G) (B3U)
                 (B2U) (B1U) (B1G) (B3U) (B3G) (AU) (B1G) (B2G)
                 (AG) (B2U) (AU) (B3U) (AG) (B2G) (B1U) (B2U) (AG)
                 (B2G) (B3U) (AG) (B1U) (B2G) (B2U) (AG) (B1U)
                 (AG) (B2G) (B3U) (B1U) (B3U) (B2G) (B1G) (B3U)
                 (B2U) (AG) (B3U) (B3U) (B2U) (B1G) (AG) (AG) (B1U)
                 (B2G) (B2U) (B3U) (B1G) (B3U) (AG) (B1U) (B2G)
                 (B1G) (B3U) (AG) (B3U) (B2U) (B1U) (AG) (B2G)
                 (AG) (B3U) (B1U) (B2U) (B1G) (B2G) (B3U) (AG)
                 (B1U) (B2G) (AG) (B3G) (B3U) (AU) (AG) (B1G) (AG)
                 (B2U) (B3U) (B1G) (B3U) (AG) (B1G) (B3U) (B1U)
                 (B2G) (B2U) (AG) (B3U) (B1G) (B1U) (B2G) (B3U)
                 (B2U) (AG) (AG) (B3U) (B2U) (B1U) (B1G) (B3G)
                 (AG) (AU) (B2G) (B3U) (AG) (B2U) (B1G) (B1U) (B3U)
                 (B2G) (B1U) (AG) (B3U) (B2G) (AG) (B2U) (B1U)
                 (B1G) (AG) (B3U) (B2U) (B3G) (B3U) (B1G) (AU)
                 (B2G) (B1U) (B2G) (AG) (B2U) (AG) (B3U) (B1U)
                 (B3U) (B1G) (AG) (B2G) (B3U) (B1G) (AG) (B3U)
                 (B1U) (B2G) (AG) (B3U) (B2U) (AG) (B3U) (B1U)
                 (B2G) (B1G) (B3U) (AG) (B3U) (B1U) (AG) (B2G)
                 (B2U) (AG) (B3U) (B1U) (B2G) (AG) (B3U) (AG) (B2U)
                 (B1G) (B3U) (AG) (B3U) (B1G) (B3U) (AG) (B1U)
                 (B2G) (B3U) (B1G) (B3U) (B2U) (B1U) (B2G) (AG)
                 (B1G) (AG) (B3U) (B3U) (B2U) (B1U) (B2G) (B1G)
                 (B3G) (AU) (B2U) (B1G) (B1U) (B2G) (AG) (B3U)
                 (AG) (B3U) (B2U) (B1G) (B1U) (B2G) (AG) (B3U)
                 (AG) (B2U) (AG) (B3U) (B1U) (B2G) (B3U) (B1G)
                 (AG) (B3U) (B2U) (AG) (B1U) (B2G) (AG) (B3U) (B1U)
                 (B2G) (B1G) (AG) (B2U) (B3U) (AG) (B3U) (B2U)
                 (B3U) (AG) (B1U) (AG) (B3U) (B2G) (B1G) (B2U)
                 (AG) (B3U) (B1G) (B1U) (B2G) (AG) (B3U) (B1U)
                 (B2G) (B1G) (B2U) (AG) (B3U) (AG) (B3U) (B1U)
                 (B2G) (B1G) (B3U) (AG) (B3U) (AG) (B3U) (AG) (B3U)
                 (AG) (B1U) (B2G) (B2U) (B1G) (B3U) (AG) (AG) (B3U)
                 (B3U) (B2U) (B1G) (B1U) (B2G) (AG) (B3U) (AG)
                 (B3U) (AG) (B3U)
 Beta  Orbitals:
       Occupied  (B3U) (AG) (B3U) (AG) (B1G) (B2U) (B2G) (B1U)
                 (B3U) (AG) (B3U) (AG) (B2G) (B1U) (B3U) (AG) (B3U)
                 (B1G) (B2U) (AG) (B3U) (AG) (B3U) (AG) (B2G) (B1U)
                 (B3U) (B2G) (AG) (B1U) (B3U) (B1G) (B2U) (AG)
                 (AG) (B2U) (B3U) (B1G) (B2G) (B3U) (B1U) (AG)
                 (B3U) (B1G) (AG) (B2U) (B2U) (AG) (B1G) (B3U)
                 (B3U) (AG) (B1G) (B3U) (B2U) (AG) (B2G) (B1U)
                 (B3U) (AG) (B2G) (B1U) (B3U) (AG) (B2G) (B1U)
                 (B3U) (AG) (B3U) (B2G) (B1U) (AG) (B3U) (B1G)
                 (AG) (B2U) (B3U) (AG) (B1G) (B2U) (B2G) (B1U)
                 (B3U) (AG) (AG) (B3U) (AG) (B2G) (B1U) (B2U) (B3U)
                 (B1G) (AG) (B3U) (AG) (B3U) (B2U) (AG) (B2U) (B1U)
                 (B2G) (B3U) (AG) (B2G) (B1U) (B3U) (AG) (B1G)
                 (B3U) (AG) (AG) (B3U) (B1G) (B3U) (B1U) (B2G)
                 (B2U) (AG) (B1U) (B2G) (B1G) (B2U) (AG) (B3U)
                 (AG) (AG) (B3U) (B1U) (B2G) (B2U) (B3U) (AG) (B3U)
                 (AG) (B1G) (B1U) (B2G) (B3U) (B1G) (AG) (B3U)
                 (AG) (B2U) (B3U) (B2U) (B1U) (B2G) (B1U) (B2G)
                 (AG) (B3U) (AG) (AG) (B1G) (B3U) (AG) (B3U) (AG)
                 (B2U) (B2U) (B3U) (B1U) (B2G) (B1G) (B1U) (B2G)
                 (B1U) (B3U) (B2U) (B1G) (AG) (B3U) (AG) (B2G)
                 (B1U) (B3U) (B3G) (AG) (B2U) (AU) (B1G) (B3G)
                 (AG) (B2G) (B2U) (B3U) (AG) (B1U) (B3U) (B2G)
                 (AU) (B1G) (B2U) (B1G) (B1U) (B1U) (B3U) (B2G)
                 (B3U) (AG) (AG) (B3U) (B2G) (B2U) (B1U) (B1G)
                 (AG) (B2G) (B3U) (B3G) (B1U) (B3G) (AG) (B3U)
                 (AU) (B3G) (B2U) (B1G) (B2G) (AG) (B1U) (AU) (B2U)
                 (B1G) (B3G) (B3U) (AG) (B2U) (AU) (B1G) (B2G)
                 (B1U) (B2U) (B1G) (AU) (B3G) (AU) (B2G) (B1U)
                 (B2U) (B1G) (B3G) (AU) (B3G) (B2G)
       Virtual   (B1U) (B2U) (B1G) (AU) (B3G) (AU) (AG) (B3U) (B1U)
                 (B3G) (B2G) (B3G) (AU) (AG) (B3U) (B2U) (B1G)
                 (B3G) (B1G) (B2U) (AU) (B1U) (B2G) (B3G) (AU)
                 (AG) (AU) (B3U) (B1U) (AG) (AG) (B2U) (B2G) (B3U)
                 (B1U) (B1G) (B3U) (AG) (B2U) (B1G) (AG) (B2G)
                 (B2U) (B1U) (B3G) (AG) (B3U) (B1U) (B2G) (B3U)
                 (AG) (B1G) (AG) (B1U) (AU) (B3G) (B3U) (B2U) (B2G)
                 (B3U) (AG) (B2U) (B1G) (B3U) (B2G) (B1U) (B2U)
                 (B1G) (AG) (B3U) (B2G) (AU) (B2G) (AG) (B1U) (B3U)
                 (AG) (B3U) (B3U) (B1G) (AG) (AG) (B1G) (B3U) (B2G)
                 (B2U) (B1U) (B2U) (B3U) (AG) (B2G) (B1U) (AG)
                 (B2G) (B3U) (AG) (B3U) (B2U) (AG) (B1U) (B3U)
                 (B1G) (B2G) (AG) (AG) (B1U) (B3U) (B2G) (AG) (B3U)
                 (B1G) (B2U) (B3U) (B2G) (B1U) (AG) (B2U) (B3U)
                 (B1G) (AG) (B3U) (B2U) (AG) (B1U) (B1G) (B2G)
                 (B3U) (B3G) (B3U) (B1U) (AG) (B2G) (AU) (AG) (AG)
                 (B3U) (B1U) (B2G) (B1G) (AG) (B3U) (B3U) (B1G)
                 (B1U) (B2U) (B2G) (B3U) (AG) (B1U) (B3G) (B2U)
                 (B3U) (AG) (B1G) (B1U) (B2G) (B2U) (B1G) (AU)
                 (AG) (B3G) (B1U) (B2U) (B2G) (B1U) (B1G) (B3U)
                 (B2G) (AG) (B2U) (B3U) (AU) (B2G) (B3G) (B2U)
                 (AG) (B3U) (B1G) (AG) (B1U) (B3U) (AG) (B3G) (B2G)
                 (B1G) (B3U) (B2U) (AU) (B1U) (B3U) (AG) (B2U)
                 (B1G) (B1U) (B2G) (AG) (B2U) (B1G) (AG) (AU) (B2G)
                 (B1U) (AG) (B3U) (B1U) (B3G) (B3U) (B2U) (B1G)
                 (AG) (B2U) (B3U) (B3G) (AU) (B3U) (B1U) (AG) (B2G)
                 (B3G) (B1G) (B2U) (B1G) (B2G) (AU) (B1U) (B2U)
                 (AG) (B2G) (B1U) (B2U) (AU) (B3G) (B1G) (B3U)
                 (AG) (AU) (B3G) (B1U) (B1G) (B3U) (B3U) (AG) (B2G)
                 (AG) (B2G) (B1G) (B2U) (B2G) (AG) (B1G) (B2U)
                 (B3U) (B1U) (B1U) (AU) (B3U) (B2U) (B3G) (AG)
                 (B2G) (B1G) (B3U) (AG) (B3G) (B3U) (B1U) (B1G)
                 (AU) (B1U) (AG) (B2U) (B2G) (B3U) (AG) (B2G) (B1G)
                 (B3U) (B2U) (B1U) (AG) (AU) (B3U) (B2U) (B3G)
                 (B3U) (AG) (B1U) (B3G) (AG) (B3U) (B1U) (B1G)
                 (B2G) (AU) (AG) (AG) (B3U) (B2G) (B3U) (B2G) (B1G)
                 (B3U) (B1U) (B2G) (AG) (B3U) (AG) (B1G) (B2U)
                 (B3U) (B1G) (B1U) (AG) (B2G) (B2U) (B3U) (B2G)
                 (B1U) (AG) (B3U) (B3U) (B1U) (B2U) (AG) (B2G)
                 (B1G) (AG) (B1U) (AG) (B2G) (B3U) (AU) (B3U) (AG)
                 (B2U) (B3U) (B1G) (B2G) (AG) (B3U) (B1U) (B2U)
                 (AG) (B1U) (B1G) (B2U) (B3U) (B2G) (B3U) (B1U)
                 (B1G) (B3U) (AG) (B1G) (B2G) (AG) (B2U) (B1U)
                 (AG) (B2U) (B3U) (B1U) (B2G) (B3G) (AG) (AG) (B1G)
                 (B3U) (B3U) (B1U) (B3U) (B1G) (B2U) (B2G) (AG)
                 (AU) (B1U) (AG) (B2G) (B3G) (B3U) (B1G) (AG) (B3G)
                 (B1U) (AU) (B2U) (B3G) (B3U) (B1G) (B2G) (B2G)
                 (B2U) (AU) (B3G) (B1U) (AG) (B1U) (B3U) (B2G)
                 (B1G) (B3U) (B1G) (B2U) (AU) (AG) (B2G) (B3U)
                 (B2U) (AU) (B3G) (B1G) (AU) (B1U) (AG) (B3U) (B2G)
                 (B2U) (B3G) (AU) (AG) (B1U) (B3G) (B3U) (B2U)
                 (B2G) (B1U) (B3G) (B1G) (B2U) (B2G) (B1U) (B3G)
                 (B3G) (B1G) (AU) (AG) (B2U) (B3U) (AG) (AG) (B2G)
                 (B3U) (AU) (B2U) (B3G) (AU) (B1U) (AG) (B3U) (B1G)
                 (AU) (B1U) (AG) (B2G) (B3G) (B3U) (B1G) (AU) (B2U)
                 (B3G) (AG) (B2G) (B3U) (B3G) (B3U) (AU) (B1U)
                 (B2G) (B1G) (AG) (B2U) (B1G) (B2U) (B3U) (AG)
                 (B1U) (B2U) (B1G) (B3U) (B1U) (AG) (B1G) (B2G)
                 (B2G) (B3U) (B1U) (B2U) (B3G) (AU) (AG) (B1G)
                 (B3U) (AG) (B2G) (B1U) (B3U) (B1G) (AG) (AG) (B2U)
                 (B2G) (B1U) (B3U) (B2U) (B1G) (B2U) (B3U) (B2G)
                 (B1U) (AG) (AU) (AG) (B3U) (B2G) (AG) (AG) (B1G)
                 (B2U) (B3U) (B1U) (B2G) (AG) (B3U) (B3U) (AG)
                 (B1G) (B2G) (B1U) (B3U) (B1U) (AG) (B1G) (B3U)
                 (B2G) (AG) (B3U) (B2U) (B3G) (AU) (B1G) (B2U)
                 (B2U) (AG) (B3G) (B1G) (B1U) (B3G) (AU) (B2U)
                 (B3G) (AU) (B3U) (B3G) (B1G) (B1U) (AG) (AU) (B2G)
                 (B1G) (B2U) (B3U) (B1U) (B2U) (B2G) (AU) (B3G)
                 (B1U) (B2G) (B1G) (AG) (B3U) (B3U) (AG) (AU) (AG)
                 (B2U) (B3U) (B1U) (AG) (B2U) (B2G) (B1G) (B1U)
                 (B2G) (B1G) (B2U) (AG) (B3U) (B2G) (AG) (B3U)
                 (B2U) (B1U) (B3U) (B3G) (AU) (B1G) (B3U) (AG)
                 (B2G) (B1U) (B1U) (B3U) (B3G) (B2G) (AG) (AU)
                 (B2G) (AG) (B1G) (B2U) (B3U) (B1U) (B3U) (B3G)
                 (B1G) (B2U) (AU) (B1U) (B3G) (B1G) (AG) (AU) (B2G)
                 (B2U) (B2G) (B3U) (B2U) (B1G) (B3G) (AG) (AU)
                 (B2U) (B1U) (B3U) (B1G) (AG) (B2G) (B3U) (B2U)
                 (B1G) (AG) (B2G) (B1U) (AG) (B3G) (B3U) (B2G)
                 (B1U) (B1G) (B3U) (AG) (B1U) (B2U) (AU) (AG) (B2U)
                 (B1G) (B3U) (B2G) (B1U) (B2G) (B3G) (AU) (B3U)
                 (B1G) (AG) (B3U) (B1U) (B3G) (B3U) (B2U) (AG)
                 (B1G) (B3U) (AG) (B1U) (B2G) (B3U) (AG) (B1G)
                 (B1U) (B2G) (AG) (B2U) (B1G) (B3U) (B3G) (AU)
                 (AG) (AU) (B2U) (B2G) (B1U) (B3U) (B1U) (B2G)
                 (B2U) (AG) (B2G) (B1U) (B3G) (B1U) (B1G) (AG)
                 (B2G) (B3U) (B2U) (B3G) (AU) (B1G) (AG) (B2U)
                 (AU) (B3G) (B3U) (B1G) (B2U) (B3U) (B2G) (AU)
                 (AG) (B2G) (B3U) (B1U) (B2G) (B1G) (B1U) (B3G)
                 (B3G) (AU) (B2U) (B1U) (B1G) (AG) (B2G) (B2U)
                 (AU) (AG) (B3G) (AU) (B2U) (B1G) (B3U) (AG) (B2U)
                 (B3U) (AG) (B3U) (B2U) (AU) (B1U) (AG) (B2G) (B3U)
                 (B2G) (AG) (B3G) (B1G) (B1U) (AG) (B2U) (B3U)
                 (B1G) (B3U) (B1U) (B1G) (B2G) (B2G) (AG) (B1U)
                 (B3U) (AG) (B1G) (B2G) (B2U) (B1U) (B2G) (B3U)
                 (B2U) (AG) (B3G) (AU) (AG) (B3G) (B3U) (B1U) (B3U)
                 (AG) (B1G) (B3U) (AG) (AU) (B1G) (B1U) (B3U) (B2G)
                 (B2U) (B3U) (B1G) (AU) (B3G) (AG) (B1U) (B3U)
                 (B2G) (B3U) (B2U) (AG) (B3G) (AU) (B2G) (B1U)
                 (B1G) (B1U) (B3U) (B2G) (B1G) (B2U) (B3G) (AG)
                 (B3U) (B1U) (AG) (B1U) (B1G) (AU) (B2U) (B3G)
                 (B2G) (B2U) (B3U) (B1G) (AG) (AU) (B2U) (B3G)
                 (B1G) (B2G) (B1U) (AG) (B3U) (AU) (B2U) (B2G)
                 (AG) (B3U) (AG) (B2U) (B2G) (B1G) (B1U) (AG) (B1G)
                 (B2G) (B3U) (B1U) (AG) (B3G) (AG) (B3U) (B2G)
                 (B3U) (B2U) (AG) (B3U) (B1U) (AG) (AU) (B3G) (B1G)
                 (B2G) (AG) (B1U) (B3U) (B2U) (AU) (B3U) (B3G)
                 (AG) (AG) (B3U) (B2U) (B1G) (B1U) (AU) (B3U) (AG)
                 (B3G) (B1G) (B2U) (B3U) (B1U) (B2U) (B2G) (B1U)
                 (AG) (B1G) (B2G) (AU) (B1U) (B1G) (AG) (B3U) (AU)
                 (B3U) (B2G) (B3G) (B1U) (B2G) (AG) (B2U) (B3U)
                 (B2G) (AU) (B3G) (B1G) (B1U) (B3U) (B3G) (AG)
                 (B3U) (B1G) (AU) (B2G) (B1U) (B2U) (B2G) (B1G)
                 (B1U) (AG) (B2U) (B3U) (AU) (B2U) (AG) (B1G) (B3U)
                 (B2G) (AG) (B1G) (B3U) (B2G) (B1U) (B3G) (B1U)
                 (AG) (AU) (B2G) (B3G) (B2U) (AU) (B1G) (B3G) (B3U)
                 (B2U) (B1G) (B1U) (B3U) (B3G) (AU) (B1G) (B2G)
                 (AG) (B2U) (AU) (B3U) (AG) (B2G) (B1U) (AG) (B2U)
                 (B2G) (B3U) (AG) (B1U) (B2U) (B2G) (AG) (B1U)
                 (AG) (B2G) (B3U) (B1U) (B3U) (B2G) (B1G) (B2U)
                 (B3U) (AG) (B3U) (B3U) (B2U) (B1G) (AG) (AG) (B1U)
                 (B2G) (B3U) (B2U) (B1G) (B3U) (AG) (B1U) (B2G)
                 (B1G) (B3U) (AG) (B3U) (B2U) (B1U) (B2G) (AG)
                 (B3U) (AG) (B1G) (B3U) (B2U) (AG) (B1U) (B2G)
                 (AG) (B3U) (B1U) (B3G) (AG) (AU) (B2G) (AG) (B3U)
                 (B1G) (B3U) (B2U) (B1G) (AG) (B1G) (B3U) (B1U)
                 (B2G) (B3U) (AG) (B2U) (B1G) (B3U) (AG) (B2U)
                 (B1U) (B2G) (AG) (B3U) (B1U) (B2U) (B1G) (B3G)
                 (AU) (B2G) (AG) (B3U) (AG) (B2U) (B1G) (B1U) (B3U)
                 (B2G) (B1U) (AG) (B3U) (B2G) (B2U) (AG) (B1G)
                 (B1U) (AG) (B3U) (B2U) (B3G) (B3U) (B1G) (AU)
                 (B2G) (B1U) (B2G) (AG) (B2U) (AG) (B3U) (B1U)
                 (B3U) (B1G) (AG) (B3U) (B2G) (B1G) (AG) (B3U)
                 (B1U) (B2G) (AG) (B3U) (B2U) (B3U) (AG) (B1U)
                 (B2G) (B1G) (B3U) (AG) (B3U) (B1U) (B2G) (AG)
                 (B2U) (AG) (B3U) (B1U) (B2G) (AG) (B3U) (AG) (B2U)
                 (B1G) (B3U) (AG) (B3U) (B1G) (B3U) (AG) (B1U)
                 (B2G) (B3U) (B1G) (B3U) (B2U) (B1U) (B2G) (AG)
                 (B1G) (AG) (B3U) (B3U) (B2U) (B1U) (B2G) (B1G)
                 (B3G) (AU) (B2U) (B1G) (B1U) (B2G) (AG) (B3U)
                 (AG) (B3U) (B2U) (B1G) (B1U) (B2G) (AG) (B3U)
                 (AG) (B2U) (AG) (B3U) (B1U) (B2G) (B3U) (B1G)
                 (AG) (B3U) (B2U) (AG) (B1U) (B2G) (AG) (B3U) (B1U)
                 (B2G) (B1G) (AG) (B2U) (B3U) (AG) (B3U) (B2U)
                 (B3U) (AG) (B1U) (AG) (B3U) (B2G) (B1G) (B2U)
                 (AG) (B3U) (B1G) (B1U) (B2G) (AG) (B3U) (B1U)
                 (B2G) (B1G) (B2U) (AG) (B3U) (AG) (B3U) (B1U)
                 (B2G) (B1G) (B3U) (AG) (B3U) (AG) (B3U) (AG) (B3U)
                 (AG) (B1U) (B2G) (B2U) (B1G) (B3U) (AG) (AG) (B3U)
                 (B3U) (B2U) (B1G) (B1U) (B2G) (AG) (B3U) (AG)
                 (B3U) (AG) (B3U)
 The electronic state is 6-B1U.
 Alpha  occ. eigenvalues -- -299.63043-299.63043 -35.65307 -35.65307 -31.06876
 Alpha  occ. eigenvalues --  -31.06876 -31.06649 -31.06649 -31.06548 -31.06548
 Alpha  occ. eigenvalues --  -14.30944 -14.30944 -14.30603 -14.30603 -14.30603
 Alpha  occ. eigenvalues --  -14.30603 -14.29725 -14.29725 -14.29725 -14.29725
 Alpha  occ. eigenvalues --  -14.29191 -14.29190 -10.20372 -10.20372 -10.20372
 Alpha  occ. eigenvalues --  -10.20372 -10.19877 -10.19877 -10.19877 -10.19877
 Alpha  occ. eigenvalues --  -10.18842 -10.18842 -10.18841 -10.18841 -10.18591
 Alpha  occ. eigenvalues --  -10.18591 -10.18541 -10.18541 -10.18396 -10.18396
 Alpha  occ. eigenvalues --  -10.18396 -10.18396 -10.18132 -10.18132 -10.18132
 Alpha  occ. eigenvalues --  -10.18132 -10.16989 -10.16989 -10.16962 -10.16962
 Alpha  occ. eigenvalues --  -10.16501 -10.16501 -10.16087 -10.16087 -10.16084
 Alpha  occ. eigenvalues --  -10.16084 -10.16058 -10.16058 -10.16058 -10.16058
 Alpha  occ. eigenvalues --  -10.16003 -10.16003 -10.16003 -10.16003 -10.15669
 Alpha  occ. eigenvalues --  -10.15669 -10.15669 -10.15669 -10.15153 -10.15153
 Alpha  occ. eigenvalues --  -10.15153 -10.15153 -10.14750 -10.14750 -10.14750
 Alpha  occ. eigenvalues --  -10.14750  -4.05436  -4.05435  -2.64555  -2.64555
 Alpha  occ. eigenvalues --   -2.64282  -2.64282  -2.64272  -2.64272  -1.01043
 Alpha  occ. eigenvalues --   -1.00062  -1.00029  -0.97589  -0.97588  -0.97229
 Alpha  occ. eigenvalues --   -0.97203  -0.96498  -0.96120  -0.96107  -0.95831
 Alpha  occ. eigenvalues --   -0.92394  -0.86572  -0.85473  -0.83637  -0.83176
 Alpha  occ. eigenvalues --   -0.83176  -0.82953  -0.82951  -0.82073  -0.82073
 Alpha  occ. eigenvalues --   -0.81719  -0.81718  -0.80916  -0.80570  -0.80295
 Alpha  occ. eigenvalues --   -0.78969  -0.78966  -0.78159  -0.76227  -0.75738
 Alpha  occ. eigenvalues --   -0.75736  -0.75663  -0.71677  -0.68743  -0.68743
 Alpha  occ. eigenvalues --   -0.68741  -0.67741  -0.67741  -0.67720  -0.67702
 Alpha  occ. eigenvalues --   -0.65645  -0.65643  -0.64762  -0.64756  -0.64251
 Alpha  occ. eigenvalues --   -0.64220  -0.63386  -0.62268  -0.62262  -0.62149
 Alpha  occ. eigenvalues --   -0.62107  -0.62100  -0.61856  -0.59200  -0.57787
 Alpha  occ. eigenvalues --   -0.57212  -0.56791  -0.56353  -0.54427  -0.54145
 Alpha  occ. eigenvalues --   -0.53756  -0.53718  -0.52763  -0.52757  -0.51819
 Alpha  occ. eigenvalues --   -0.51789  -0.51390  -0.50891  -0.50820  -0.50468
 Alpha  occ. eigenvalues --   -0.50461  -0.49621  -0.49621  -0.49421  -0.48807
 Alpha  occ. eigenvalues --   -0.48527  -0.48457  -0.48205  -0.48172  -0.48137
 Alpha  occ. eigenvalues --   -0.47885  -0.47542  -0.46576  -0.46446  -0.46410
 Alpha  occ. eigenvalues --   -0.46306  -0.45909  -0.45606  -0.45373  -0.45308
 Alpha  occ. eigenvalues --   -0.45240  -0.45141  -0.44857  -0.44028  -0.44011
 Alpha  occ. eigenvalues --   -0.43937  -0.43819  -0.43723  -0.43542  -0.43459
 Alpha  occ. eigenvalues --   -0.43451  -0.42785  -0.42602  -0.42573  -0.42098
 Alpha  occ. eigenvalues --   -0.41850  -0.41667  -0.41511  -0.41390  -0.41243
 Alpha  occ. eigenvalues --   -0.41052  -0.40160  -0.39839  -0.39820  -0.39807
 Alpha  occ. eigenvalues --   -0.39250  -0.39086  -0.38324  -0.38259  -0.38243
 Alpha  occ. eigenvalues --   -0.38199  -0.37678  -0.37606  -0.37291  -0.37269
 Alpha  occ. eigenvalues --   -0.35867  -0.35732  -0.35038  -0.34768  -0.34657
 Alpha  occ. eigenvalues --   -0.34642  -0.33397  -0.33350  -0.33335  -0.33321
 Alpha  occ. eigenvalues --   -0.33291  -0.33279  -0.32973  -0.32951  -0.32712
 Alpha  occ. eigenvalues --   -0.32479  -0.32318  -0.31000  -0.30986  -0.30729
 Alpha  occ. eigenvalues --   -0.30292  -0.30156  -0.29609  -0.29456  -0.29435
 Alpha  occ. eigenvalues --   -0.29400  -0.29310  -0.29286  -0.28319  -0.28225
 Alpha  occ. eigenvalues --   -0.27291  -0.26039  -0.26034  -0.25773  -0.25739
 Alpha  occ. eigenvalues --   -0.25645  -0.25535  -0.22693  -0.22338  -0.16797
 Alpha virt. eigenvalues --   -0.11484  -0.11481  -0.11454  -0.10627  -0.10571
 Alpha virt. eigenvalues --   -0.09593  -0.09447  -0.08593  -0.07356  -0.07278
 Alpha virt. eigenvalues --   -0.06868  -0.06861  -0.05348  -0.04339  -0.04337
 Alpha virt. eigenvalues --   -0.04181  -0.03641  -0.02707  -0.01051  -0.01026
 Alpha virt. eigenvalues --    0.01684   0.01872   0.03115   0.03321   0.03502
 Alpha virt. eigenvalues --    0.04289   0.04347   0.04808   0.05171   0.05619
 Alpha virt. eigenvalues --    0.05737   0.05874   0.06241   0.06590   0.06613
 Alpha virt. eigenvalues --    0.06706   0.07407   0.07559   0.07712   0.07713
 Alpha virt. eigenvalues --    0.07780   0.08040   0.08224   0.08231   0.08989
 Alpha virt. eigenvalues --    0.09119   0.09803   0.10184   0.10314   0.10446
 Alpha virt. eigenvalues --    0.10477   0.10587   0.10702   0.10946   0.11248
 Alpha virt. eigenvalues --    0.11672   0.13239   0.13270   0.14111   0.14444
 Alpha virt. eigenvalues --    0.14782   0.14954   0.15150   0.15563   0.15802
 Alpha virt. eigenvalues --    0.16051   0.16069   0.16285   0.16333   0.16353
 Alpha virt. eigenvalues --    0.16939   0.17481   0.17539   0.18117   0.18140
 Alpha virt. eigenvalues --    0.18168   0.18515   0.18751   0.18926   0.18961
 Alpha virt. eigenvalues --    0.20054   0.20111   0.20401   0.20471   0.20698
 Alpha virt. eigenvalues --    0.20866   0.21004   0.21091   0.21479   0.21724
 Alpha virt. eigenvalues --    0.22191   0.22720   0.22818   0.22824   0.22936
 Alpha virt. eigenvalues --    0.22953   0.23610   0.23860   0.23978   0.24522
 Alpha virt. eigenvalues --    0.24654   0.24802   0.25374   0.25496   0.25730
 Alpha virt. eigenvalues --    0.25739   0.25988   0.26204   0.26246   0.26356
 Alpha virt. eigenvalues --    0.26438   0.27112   0.27950   0.28307   0.28759
 Alpha virt. eigenvalues --    0.29009   0.29748   0.30291   0.30428   0.30574
 Alpha virt. eigenvalues --    0.30816   0.31029   0.31278   0.31326   0.31636
 Alpha virt. eigenvalues --    0.31826   0.32092   0.32110   0.32148   0.32491
 Alpha virt. eigenvalues --    0.32556   0.32587   0.32695   0.32973   0.33110
 Alpha virt. eigenvalues --    0.33139   0.33857   0.33873   0.34121   0.34194
 Alpha virt. eigenvalues --    0.34312   0.34347   0.34658   0.35215   0.35342
 Alpha virt. eigenvalues --    0.35367   0.35379   0.35533   0.35752   0.36105
 Alpha virt. eigenvalues --    0.36347   0.36433   0.36840   0.36914   0.37137
 Alpha virt. eigenvalues --    0.37191   0.37287   0.37344   0.37419   0.37859
 Alpha virt. eigenvalues --    0.38007   0.38134   0.38222   0.38450   0.38536
 Alpha virt. eigenvalues --    0.38714   0.38810   0.38846   0.39203   0.39388
 Alpha virt. eigenvalues --    0.39622   0.39640   0.39716   0.40055   0.40092
 Alpha virt. eigenvalues --    0.40093   0.40179   0.40298   0.40359   0.40361
 Alpha virt. eigenvalues --    0.40435   0.40444   0.40644   0.41035   0.41630
 Alpha virt. eigenvalues --    0.41760   0.42085   0.42240   0.42431   0.43115
 Alpha virt. eigenvalues --    0.43122   0.43257   0.43438   0.43523   0.44247
 Alpha virt. eigenvalues --    0.44339   0.44515   0.44663   0.44671   0.44883
 Alpha virt. eigenvalues --    0.45016   0.45153   0.45343   0.45615   0.45810
 Alpha virt. eigenvalues --    0.46006   0.46043   0.46136   0.46485   0.47056
 Alpha virt. eigenvalues --    0.47173   0.47524   0.47811   0.48416   0.49057
 Alpha virt. eigenvalues --    0.49146   0.49355   0.49961   0.50398   0.50420
 Alpha virt. eigenvalues --    0.50481   0.50845   0.50979   0.51100   0.51299
 Alpha virt. eigenvalues --    0.51915   0.52337   0.52495   0.52573   0.53163
 Alpha virt. eigenvalues --    0.53312   0.54097   0.54546   0.54578   0.54730
 Alpha virt. eigenvalues --    0.55177   0.55418   0.56100   0.56231   0.56242
 Alpha virt. eigenvalues --    0.56679   0.56806   0.56836   0.57064   0.57064
 Alpha virt. eigenvalues --    0.57070   0.57131   0.57279   0.57459   0.57712
 Alpha virt. eigenvalues --    0.57785   0.58187   0.58517   0.58642   0.58887
 Alpha virt. eigenvalues --    0.58918   0.59273   0.59607   0.59656   0.59718
 Alpha virt. eigenvalues --    0.59744   0.59750   0.60006   0.60035   0.60123
 Alpha virt. eigenvalues --    0.60163   0.60263   0.60845   0.60983   0.61246
 Alpha virt. eigenvalues --    0.61277   0.61439   0.61586   0.61705   0.61802
 Alpha virt. eigenvalues --    0.62262   0.62706   0.62834   0.62945   0.63167
 Alpha virt. eigenvalues --    0.63269   0.63858   0.64014   0.64112   0.64536
 Alpha virt. eigenvalues --    0.65315   0.65466   0.65677   0.66183   0.66331
 Alpha virt. eigenvalues --    0.66509   0.66676   0.67060   0.67208   0.68940
 Alpha virt. eigenvalues --    0.69026   0.69491   0.69895   0.70068   0.70109
 Alpha virt. eigenvalues --    0.70344   0.70833   0.70953   0.71226   0.71357
 Alpha virt. eigenvalues --    0.71508   0.71692   0.72498   0.72554   0.72632
 Alpha virt. eigenvalues --    0.73030   0.73087   0.73403   0.73405   0.73452
 Alpha virt. eigenvalues --    0.74157   0.74626   0.74712   0.74881   0.75082
 Alpha virt. eigenvalues --    0.75223   0.75423   0.75779   0.75993   0.76017
 Alpha virt. eigenvalues --    0.76247   0.76270   0.77024   0.77853   0.77901
 Alpha virt. eigenvalues --    0.77907   0.78258   0.78695   0.79113   0.79284
 Alpha virt. eigenvalues --    0.79703   0.79919   0.80029   0.80219   0.80913
 Alpha virt. eigenvalues --    0.80948   0.81844   0.81941   0.82305   0.82592
 Alpha virt. eigenvalues --    0.82667   0.82839   0.82924   0.83076   0.83516
 Alpha virt. eigenvalues --    0.83586   0.83647   0.83966   0.84384   0.84869
 Alpha virt. eigenvalues --    0.85949   0.86098   0.86238   0.86402   0.86748
 Alpha virt. eigenvalues --    0.87115   0.87215   0.87628   0.88020   0.88049
 Alpha virt. eigenvalues --    0.88853   0.89173   0.89449   0.89578   0.89612
 Alpha virt. eigenvalues --    0.89815   0.90337   0.90467   0.91249   0.91711
 Alpha virt. eigenvalues --    0.92041   0.92643   0.92674   0.93132   0.93345
 Alpha virt. eigenvalues --    0.93607   0.93887   0.94112   0.94247   0.94348
 Alpha virt. eigenvalues --    0.94701   0.95010   0.95942   0.96264   0.96734
 Alpha virt. eigenvalues --    0.96777   0.96857   0.97278   0.97713   0.97955
 Alpha virt. eigenvalues --    0.98375   0.98561   0.98830   0.98896   0.99311
 Alpha virt. eigenvalues --    0.99320   0.99333   0.99347   0.99747   0.99915
 Alpha virt. eigenvalues --    0.99939   0.99979   1.00436   1.00508   1.00923
 Alpha virt. eigenvalues --    1.00979   1.01201   1.01663   1.01709   1.01778
 Alpha virt. eigenvalues --    1.01916   1.02034   1.02035   1.02037   1.02361
 Alpha virt. eigenvalues --    1.02658   1.02944   1.03139   1.03909   1.04178
 Alpha virt. eigenvalues --    1.04186   1.05041   1.05300   1.05956   1.06037
 Alpha virt. eigenvalues --    1.06097   1.06382   1.07146   1.07654   1.08091
 Alpha virt. eigenvalues --    1.09497   1.09908   1.10112   1.10364   1.11321
 Alpha virt. eigenvalues --    1.11423   1.11668   1.11732   1.11772   1.11839
 Alpha virt. eigenvalues --    1.12472   1.12682   1.13624   1.13721   1.13910
 Alpha virt. eigenvalues --    1.14001   1.14053   1.14372   1.14387   1.14413
 Alpha virt. eigenvalues --    1.14420   1.15014   1.15793   1.15842   1.16313
 Alpha virt. eigenvalues --    1.17077   1.17173   1.18009   1.18266   1.18316
 Alpha virt. eigenvalues --    1.18431   1.19792   1.19958   1.20953   1.21138
 Alpha virt. eigenvalues --    1.21677   1.21902   1.22251   1.22512   1.23232
 Alpha virt. eigenvalues --    1.23415   1.24345   1.25023   1.25080   1.25519
 Alpha virt. eigenvalues --    1.25524   1.25958   1.27421   1.28401   1.29201
 Alpha virt. eigenvalues --    1.29455   1.31488   1.31859   1.33521   1.33726
 Alpha virt. eigenvalues --    1.34129   1.34672   1.36137   1.36396   1.36550
 Alpha virt. eigenvalues --    1.36772   1.37386   1.37771   1.37916   1.38055
 Alpha virt. eigenvalues --    1.38489   1.40067   1.40989   1.41122   1.41214
 Alpha virt. eigenvalues --    1.41354   1.41589   1.41658   1.42222   1.42351
 Alpha virt. eigenvalues --    1.42492   1.42937   1.43211   1.43479   1.43557
 Alpha virt. eigenvalues --    1.43840   1.44028   1.44229   1.44409   1.44414
 Alpha virt. eigenvalues --    1.45431   1.45493   1.45968   1.46081   1.46533
 Alpha virt. eigenvalues --    1.48078   1.48182   1.48259   1.48492   1.48583
 Alpha virt. eigenvalues --    1.48611   1.48787   1.49041   1.49279   1.49296
 Alpha virt. eigenvalues --    1.50098   1.50543   1.50699   1.50739   1.50798
 Alpha virt. eigenvalues --    1.51215   1.51280   1.51479   1.51523   1.52038
 Alpha virt. eigenvalues --    1.52558   1.52661   1.53670   1.53725   1.53781
 Alpha virt. eigenvalues --    1.53848   1.54611   1.54644   1.54762   1.54860
 Alpha virt. eigenvalues --    1.54976   1.54992   1.55035   1.55190   1.55728
 Alpha virt. eigenvalues --    1.55887   1.56116   1.56150   1.56444   1.56624
 Alpha virt. eigenvalues --    1.57394   1.58043   1.59062   1.59100   1.59397
 Alpha virt. eigenvalues --    1.59583   1.60071   1.60939   1.61119   1.61275
 Alpha virt. eigenvalues --    1.61696   1.61862   1.61940   1.62266   1.62325
 Alpha virt. eigenvalues --    1.62433   1.62601   1.62837   1.63337   1.63866
 Alpha virt. eigenvalues --    1.64056   1.64584   1.64999   1.65759   1.66370
 Alpha virt. eigenvalues --    1.66759   1.67329   1.67462   1.67635   1.67664
 Alpha virt. eigenvalues --    1.67706   1.67747   1.67871   1.68395   1.68438
 Alpha virt. eigenvalues --    1.68878   1.69667   1.70356   1.70643   1.70917
 Alpha virt. eigenvalues --    1.71194   1.71210   1.71385   1.71617   1.72382
 Alpha virt. eigenvalues --    1.72626   1.72760   1.72779   1.72900   1.73015
 Alpha virt. eigenvalues --    1.73071   1.73550   1.73673   1.74078   1.74141
 Alpha virt. eigenvalues --    1.74432   1.74883   1.75022   1.75142   1.75327
 Alpha virt. eigenvalues --    1.76001   1.76323   1.76771   1.76919   1.77519
 Alpha virt. eigenvalues --    1.77529   1.78222   1.78300   1.78459   1.78871
 Alpha virt. eigenvalues --    1.79191   1.80102   1.80579   1.80631   1.81142
 Alpha virt. eigenvalues --    1.81197   1.81473   1.81620   1.82160   1.82202
 Alpha virt. eigenvalues --    1.82516   1.82559   1.82591   1.82597   1.82623
 Alpha virt. eigenvalues --    1.83138   1.83262   1.83498   1.83665   1.84126
 Alpha virt. eigenvalues --    1.85117   1.86192   1.86385   1.87091   1.87104
 Alpha virt. eigenvalues --    1.87165   1.87289   1.87475   1.88584   1.88924
 Alpha virt. eigenvalues --    1.89644   1.89676   1.89890   1.90254   1.90454
 Alpha virt. eigenvalues --    1.91067   1.91228   1.91513   1.92061   1.92230
 Alpha virt. eigenvalues --    1.92415   1.92500   1.93512   1.93610   1.93681
 Alpha virt. eigenvalues --    1.93916   1.93965   1.94257   1.94882   1.94926
 Alpha virt. eigenvalues --    1.95005   1.95162   1.95230   1.95365   1.95457
 Alpha virt. eigenvalues --    1.95721   1.95971   1.96136   1.96385   1.97241
 Alpha virt. eigenvalues --    1.97971   1.98808   1.99782   1.99871   2.00216
 Alpha virt. eigenvalues --    2.00487   2.00494   2.00529   2.00809   2.01002
 Alpha virt. eigenvalues --    2.01012   2.02350   2.02890   2.02944   2.03143
 Alpha virt. eigenvalues --    2.03175   2.03189   2.03717   2.04169   2.04490
 Alpha virt. eigenvalues --    2.05805   2.06437   2.07314   2.07574   2.07653
 Alpha virt. eigenvalues --    2.08829   2.09188   2.10753   2.11055   2.11243
 Alpha virt. eigenvalues --    2.11717   2.11794   2.12901   2.13202   2.13554
 Alpha virt. eigenvalues --    2.13874   2.14310   2.14762   2.14853   2.14864
 Alpha virt. eigenvalues --    2.15237   2.15251   2.16344   2.16819   2.16945
 Alpha virt. eigenvalues --    2.16959   2.17540   2.17676   2.19300   2.19306
 Alpha virt. eigenvalues --    2.20339   2.20442   2.20541   2.21022   2.21209
 Alpha virt. eigenvalues --    2.21288   2.22050   2.22748   2.23832   2.24390
 Alpha virt. eigenvalues --    2.25129   2.25475   2.25872   2.26170   2.26495
 Alpha virt. eigenvalues --    2.26726   2.27854   2.28362   2.29686   2.30125
 Alpha virt. eigenvalues --    2.30232   2.30548   2.30816   2.32218   2.32340
 Alpha virt. eigenvalues --    2.32642   2.32807   2.33523   2.33868   2.33941
 Alpha virt. eigenvalues --    2.34608   2.34733   2.35033   2.35079   2.35325
 Alpha virt. eigenvalues --    2.35661   2.36036   2.36279   2.36565   2.37107
 Alpha virt. eigenvalues --    2.39336   2.39499   2.40090   2.40744   2.40991
 Alpha virt. eigenvalues --    2.41041   2.41349   2.41534   2.42635   2.42841
 Alpha virt. eigenvalues --    2.43267   2.45481   2.45526   2.45570   2.47173
 Alpha virt. eigenvalues --    2.47207   2.47542   2.47854   2.48116   2.48619
 Alpha virt. eigenvalues --    2.49033   2.49166   2.49465   2.49659   2.49877
 Alpha virt. eigenvalues --    2.50911   2.51790   2.52115   2.52485   2.52526
 Alpha virt. eigenvalues --    2.53227   2.53466   2.54029   2.54455   2.54495
 Alpha virt. eigenvalues --    2.54925   2.55108   2.55486   2.55631   2.55828
 Alpha virt. eigenvalues --    2.55920   2.56094   2.56512   2.56836   2.57019
 Alpha virt. eigenvalues --    2.57876   2.58211   2.58375   2.58526   2.58842
 Alpha virt. eigenvalues --    2.60538   2.60661   2.60679   2.61077   2.61536
 Alpha virt. eigenvalues --    2.61565   2.61852   2.62196   2.62339   2.62511
 Alpha virt. eigenvalues --    2.62567   2.63182   2.63362   2.63787   2.63914
 Alpha virt. eigenvalues --    2.64120   2.64259   2.64571   2.64584   2.64843
 Alpha virt. eigenvalues --    2.65810   2.66192   2.66209   2.66370   2.66428
 Alpha virt. eigenvalues --    2.66430   2.66444   2.66849   2.66860   2.67001
 Alpha virt. eigenvalues --    2.67152   2.67473   2.67668   2.67733   2.68043
 Alpha virt. eigenvalues --    2.68309   2.68456   2.68781   2.69006   2.69552
 Alpha virt. eigenvalues --    2.69686   2.71466   2.71949   2.72274   2.72339
 Alpha virt. eigenvalues --    2.72434   2.72468   2.72815   2.73027   2.74683
 Alpha virt. eigenvalues --    2.74712   2.74733   2.74789   2.74821   2.76032
 Alpha virt. eigenvalues --    2.76116   2.76121   2.76144   2.76365   2.76515
 Alpha virt. eigenvalues --    2.76953   2.77302   2.77591   2.77696   2.77893
 Alpha virt. eigenvalues --    2.78142   2.78149   2.78221   2.78442   2.78650
 Alpha virt. eigenvalues --    2.78652   2.78788   2.79420   2.79438   2.79573
 Alpha virt. eigenvalues --    2.79726   2.79786   2.80030   2.81676   2.81757
 Alpha virt. eigenvalues --    2.82257   2.82320   2.82446   2.83213   2.83819
 Alpha virt. eigenvalues --    2.84293   2.84424   2.84527   2.84806   2.84828
 Alpha virt. eigenvalues --    2.86115   2.86832   2.87508   2.87799   2.87979
 Alpha virt. eigenvalues --    2.88335   2.88672   2.88922   2.89591   2.90073
 Alpha virt. eigenvalues --    2.91305   2.91985   2.92255   2.92414   2.92426
 Alpha virt. eigenvalues --    2.93216   2.93469   2.93680   2.94227   2.94626
 Alpha virt. eigenvalues --    2.95322   2.95774   2.96074   2.96138   2.96177
 Alpha virt. eigenvalues --    2.96274   2.97204   2.97334   2.97418   2.97516
 Alpha virt. eigenvalues --    2.98329   2.98907   2.98930   3.00941   3.01591
 Alpha virt. eigenvalues --    3.02846   3.08418   3.08714   3.09037   3.10945
 Alpha virt. eigenvalues --    3.12347   3.12493   3.12504   3.12742   3.14977
 Alpha virt. eigenvalues --    3.15608   3.16672   3.17252   3.17280   3.18725
 Alpha virt. eigenvalues --    3.18918   3.19308   3.19555   3.19652   3.23140
 Alpha virt. eigenvalues --    3.23189   3.23363   3.24415   3.26297   3.26603
 Alpha virt. eigenvalues --    3.27210   3.30961   3.31717   3.32509   3.32658
 Alpha virt. eigenvalues --    3.32931   3.34398   3.34885   3.35439   3.36008
 Alpha virt. eigenvalues --    3.36018   3.37496   3.38185   3.38913   3.39228
 Alpha virt. eigenvalues --    3.39390   3.39881   3.40403   3.41043   3.41289
 Alpha virt. eigenvalues --    3.42314   3.42780   3.42859   3.42946   3.44395
 Alpha virt. eigenvalues --    3.44519   3.45903   3.45922   3.45958   3.46113
 Alpha virt. eigenvalues --    3.46685   3.46747   3.47826   3.48061   3.48492
 Alpha virt. eigenvalues --    3.49464   3.49464   3.49597   3.49626   3.49962
 Alpha virt. eigenvalues --    3.49964   3.50381   3.51505   3.52309   3.54406
 Alpha virt. eigenvalues --    3.54417   3.55260   3.55906   3.56647   3.57148
 Alpha virt. eigenvalues --    3.57896   3.58225   3.59561   3.60435   3.60864
 Alpha virt. eigenvalues --    3.61556   3.62291   3.63766   3.64124   3.66711
 Alpha virt. eigenvalues --    3.66818   3.73738   3.73948   3.75318   3.77070
 Alpha virt. eigenvalues --    3.77262   3.77364   3.77848   3.77883   3.79943
 Alpha virt. eigenvalues --    3.81232   3.81571   3.82065   3.82495   3.85394
 Alpha virt. eigenvalues --    3.86486   3.87727   3.87870   3.89072   3.90400
 Alpha virt. eigenvalues --    3.90468   3.90676   3.91650   3.92598   3.92801
 Alpha virt. eigenvalues --    3.93281   3.95326   3.95705   3.96643   3.96796
 Alpha virt. eigenvalues --    3.96967   3.97015   4.00670   4.03324   4.03450
 Alpha virt. eigenvalues --    4.04080   4.04366   4.04704   4.04743   4.05010
 Alpha virt. eigenvalues --    4.05383   4.05394   4.05514   4.05907   4.06615
 Alpha virt. eigenvalues --    4.06694   4.08485   4.09393   4.13842   4.15871
 Alpha virt. eigenvalues --    4.17596   4.18039   4.18265   4.21373   4.21626
 Alpha virt. eigenvalues --    4.23532   4.25379   4.28577   4.29544   4.33714
 Alpha virt. eigenvalues --    4.34301   4.34891   4.36955   4.42384   4.43590
 Alpha virt. eigenvalues --    4.48754   4.49225   4.49833   4.49970   4.52428
 Alpha virt. eigenvalues --    4.53105   4.54302   4.55590   4.57667   4.59540
 Alpha virt. eigenvalues --    4.61688   4.65376   4.67068   4.72270   4.72593
 Alpha virt. eigenvalues --    4.74171   4.89103   4.91479   5.02858   5.16479
 Alpha virt. eigenvalues --    5.16540   5.16980   5.21193   5.22146   5.22424
 Alpha virt. eigenvalues --    5.25987   5.27014   5.32936   5.33147   5.43025
 Alpha virt. eigenvalues --    6.56681   6.57024   6.67415   6.68681   6.73647
 Alpha virt. eigenvalues --    6.74547   6.92700   6.95401   7.11972   7.13815
 Alpha virt. eigenvalues --    8.60372   8.63621   8.76804   8.77053   8.86647
 Alpha virt. eigenvalues --    8.96959  23.56633  23.63948  23.68197  23.68816
 Alpha virt. eigenvalues --   23.77129  23.77422  23.83642  23.84039  23.84338
 Alpha virt. eigenvalues --   23.84598  23.87860  23.89399  23.94008  23.94132
 Alpha virt. eigenvalues --   23.95755  23.95862  23.96429  23.96638  23.99224
 Alpha virt. eigenvalues --   23.99245  23.99787  23.99949  24.06199  24.06264
 Alpha virt. eigenvalues --   24.07354  24.07789  24.07960  24.08285  24.08386
 Alpha virt. eigenvalues --   24.08406  24.08440  24.09033  24.10291  24.10398
 Alpha virt. eigenvalues --   24.11973  24.12255  24.14578  24.14581  24.16600
 Alpha virt. eigenvalues --   24.16617  24.16626  24.16655  24.20621  24.21850
 Alpha virt. eigenvalues --   24.21899  24.21959  24.22963  24.23013  24.24128
 Alpha virt. eigenvalues --   24.24171  24.24464  24.24694  24.24980  24.25361
 Alpha virt. eigenvalues --   29.98542  30.01713  35.68725  35.72602  35.72836
 Alpha virt. eigenvalues --   35.73730  35.73744  35.75641  35.76946  35.77277
 Alpha virt. eigenvalues --   35.78857  35.79442  35.79519  35.89872  36.11895
 Alpha virt. eigenvalues --   36.14209  36.27140  36.27313  36.35904  36.43552
 Alpha virt. eigenvalues --  162.45531 162.48078 845.84513 845.87109
  Beta  occ. eigenvalues -- -299.63049-299.63049 -35.61498 -35.61498 -31.03664
  Beta  occ. eigenvalues --  -31.03664 -31.03455 -31.03455 -31.03443 -31.03443
  Beta  occ. eigenvalues --  -14.30739 -14.30739 -14.30376 -14.30376 -14.30376
  Beta  occ. eigenvalues --  -14.30376 -14.29475 -14.29475 -14.29475 -14.29475
  Beta  occ. eigenvalues --  -14.28370 -14.28369 -10.20381 -10.20381 -10.20381
  Beta  occ. eigenvalues --  -10.20381 -10.19877 -10.19877 -10.19877 -10.19877
  Beta  occ. eigenvalues --  -10.18807 -10.18807 -10.18806 -10.18806 -10.18545
  Beta  occ. eigenvalues --  -10.18545 -10.18496 -10.18495 -10.18409 -10.18409
  Beta  occ. eigenvalues --  -10.18409 -10.18409 -10.18163 -10.18163 -10.18163
  Beta  occ. eigenvalues --  -10.18163 -10.16946 -10.16946 -10.16919 -10.16919
  Beta  occ. eigenvalues --  -10.16511 -10.16511 -10.16088 -10.16088 -10.16088
  Beta  occ. eigenvalues --  -10.16087 -10.16079 -10.16079 -10.16076 -10.16076
  Beta  occ. eigenvalues --  -10.16012 -10.16012 -10.16012 -10.16012 -10.15663
  Beta  occ. eigenvalues --  -10.15663 -10.15663 -10.15663 -10.15142 -10.15142
  Beta  occ. eigenvalues --  -10.15142 -10.15142 -10.14685 -10.14685 -10.14685
  Beta  occ. eigenvalues --  -10.14685  -3.96437  -3.96437  -2.55395  -2.55395
  Beta  occ. eigenvalues --   -2.54953  -2.54953  -2.54943  -2.54943  -1.00325
  Beta  occ. eigenvalues --   -0.99860  -0.99803  -0.97386  -0.97386  -0.96985
  Beta  occ. eigenvalues --   -0.96816  -0.96246  -0.95898  -0.95886  -0.95438
  Beta  occ. eigenvalues --   -0.91312  -0.86318  -0.85285  -0.83491  -0.83154
  Beta  occ. eigenvalues --   -0.83153  -0.82896  -0.82893  -0.82011  -0.82011
  Beta  occ. eigenvalues --   -0.81653  -0.81653  -0.80821  -0.80455  -0.80082
  Beta  occ. eigenvalues --   -0.78934  -0.78931  -0.78038  -0.76068  -0.75712
  Beta  occ. eigenvalues --   -0.75711  -0.75477  -0.71124  -0.68697  -0.68697
  Beta  occ. eigenvalues --   -0.68589  -0.67689  -0.67672  -0.67667  -0.67618
  Beta  occ. eigenvalues --   -0.65591  -0.65588  -0.64705  -0.64700  -0.64112
  Beta  occ. eigenvalues --   -0.64020  -0.62896  -0.62161  -0.62156  -0.62054
  Beta  occ. eigenvalues --   -0.62036  -0.62030  -0.61750  -0.59073  -0.57570
  Beta  occ. eigenvalues --   -0.57025  -0.56599  -0.56104  -0.54237  -0.54019
  Beta  occ. eigenvalues --   -0.53636  -0.53606  -0.52701  -0.52695  -0.51628
  Beta  occ. eigenvalues --   -0.51616  -0.51081  -0.50777  -0.50686  -0.50398
  Beta  occ. eigenvalues --   -0.50391  -0.49553  -0.49549  -0.49314  -0.48331
  Beta  occ. eigenvalues --   -0.48281  -0.48257  -0.48116  -0.48103  -0.47999
  Beta  occ. eigenvalues --   -0.47831  -0.47024  -0.46443  -0.46336  -0.46307
  Beta  occ. eigenvalues --   -0.46121  -0.45630  -0.45573  -0.45321  -0.45195
  Beta  occ. eigenvalues --   -0.44841  -0.44793  -0.44505  -0.43881  -0.43865
  Beta  occ. eigenvalues --   -0.43846  -0.43390  -0.43036  -0.43004  -0.42581
  Beta  occ. eigenvalues --   -0.42476  -0.42393  -0.42378  -0.41769  -0.41761
  Beta  occ. eigenvalues --   -0.41588  -0.41248  -0.41140  -0.40934  -0.40828
  Beta  occ. eigenvalues --   -0.39750  -0.39737  -0.39737  -0.39223  -0.39043
  Beta  occ. eigenvalues --   -0.38924  -0.38745  -0.38163  -0.38154  -0.38137
  Beta  occ. eigenvalues --   -0.38104  -0.36292  -0.35359  -0.34769  -0.34557
  Beta  occ. eigenvalues --   -0.34320  -0.34186  -0.33576  -0.33395  -0.33325
  Beta  occ. eigenvalues --   -0.33308  -0.32937  -0.32904  -0.32519  -0.32509
  Beta  occ. eigenvalues --   -0.32363  -0.32232  -0.31993  -0.31844  -0.31734
  Beta  occ. eigenvalues --   -0.31074  -0.30986  -0.30569  -0.30504  -0.30451
  Beta  occ. eigenvalues --   -0.29679  -0.29177  -0.28986  -0.28970  -0.27296
  Beta  occ. eigenvalues --   -0.26912  -0.26633  -0.26624  -0.26534  -0.26212
  Beta  occ. eigenvalues --   -0.26099  -0.25893  -0.25852  -0.25088  -0.24310
  Beta virt. eigenvalues --   -0.12606  -0.11308  -0.11304  -0.10981  -0.10574
  Beta virt. eigenvalues --   -0.10517  -0.10004  -0.09946  -0.09567  -0.09415
  Beta virt. eigenvalues --   -0.07804  -0.07276  -0.07203  -0.07131  -0.07081
  Beta virt. eigenvalues --   -0.06838  -0.06830  -0.04921  -0.04337  -0.04335
  Beta virt. eigenvalues --   -0.03458  -0.02940  -0.02407  -0.01088  -0.01057
  Beta virt. eigenvalues --    0.01858   0.02074   0.03206   0.03356   0.03552
  Beta virt. eigenvalues --    0.04336   0.04356   0.04824   0.05323   0.05641
  Beta virt. eigenvalues --    0.05769   0.05957   0.06285   0.06619   0.06645
  Beta virt. eigenvalues --    0.06805   0.07578   0.07800   0.08041   0.08048
  Beta virt. eigenvalues --    0.08142   0.08311   0.08319   0.08407   0.09001
  Beta virt. eigenvalues --    0.09229   0.09829   0.10218   0.10360   0.10500
  Beta virt. eigenvalues --    0.10535   0.10674   0.10757   0.10961   0.11420
  Beta virt. eigenvalues --    0.12009   0.13306   0.13331   0.14201   0.14513
  Beta virt. eigenvalues --    0.14978   0.15000   0.15243   0.15915   0.15994
  Beta virt. eigenvalues --    0.16160   0.16385   0.16423   0.16476   0.16482
  Beta virt. eigenvalues --    0.17171   0.17531   0.17726   0.18202   0.18362
  Beta virt. eigenvalues --    0.18508   0.18768   0.19115   0.19157   0.19635
  Beta virt. eigenvalues --    0.20327   0.20588   0.20721   0.20828   0.20933
  Beta virt. eigenvalues --    0.20962   0.21205   0.21314   0.21597   0.21933
  Beta virt. eigenvalues --    0.22770   0.22900   0.22969   0.22983   0.23000
  Beta virt. eigenvalues --    0.23283   0.23786   0.23921   0.24195   0.24675
  Beta virt. eigenvalues --    0.24739   0.25032   0.25413   0.25648   0.25856
  Beta virt. eigenvalues --    0.25896   0.26126   0.26284   0.26404   0.26484
  Beta virt. eigenvalues --    0.26605   0.27207   0.28113   0.28545   0.28863
  Beta virt. eigenvalues --    0.29149   0.29878   0.30373   0.30561   0.30678
  Beta virt. eigenvalues --    0.30954   0.31154   0.31365   0.31458   0.31713
  Beta virt. eigenvalues --    0.31945   0.32139   0.32182   0.32232   0.32639
  Beta virt. eigenvalues --    0.32676   0.32741   0.32895   0.33240   0.33253
  Beta virt. eigenvalues --    0.33259   0.33931   0.34048   0.34192   0.34337
  Beta virt. eigenvalues --    0.34401   0.34425   0.34792   0.35291   0.35421
  Beta virt. eigenvalues --    0.35437   0.35574   0.35602   0.36002   0.36174
  Beta virt. eigenvalues --    0.36481   0.36589   0.36919   0.36946   0.37223
  Beta virt. eigenvalues --    0.37322   0.37376   0.37379   0.37480   0.37900
  Beta virt. eigenvalues --    0.38117   0.38194   0.38422   0.38530   0.38636
  Beta virt. eigenvalues --    0.38784   0.38825   0.38897   0.39396   0.39477
  Beta virt. eigenvalues --    0.39654   0.39702   0.39928   0.40114   0.40120
  Beta virt. eigenvalues --    0.40172   0.40320   0.40388   0.40393   0.40504
  Beta virt. eigenvalues --    0.40533   0.40619   0.40720   0.41124   0.41727
  Beta virt. eigenvalues --    0.41891   0.42177   0.42288   0.42518   0.43212
  Beta virt. eigenvalues --    0.43233   0.43377   0.43480   0.43694   0.44259
  Beta virt. eigenvalues --    0.44583   0.44688   0.44735   0.44745   0.45090
  Beta virt. eigenvalues --    0.45096   0.45360   0.45630   0.45875   0.45995
  Beta virt. eigenvalues --    0.46128   0.46202   0.46225   0.46517   0.47198
  Beta virt. eigenvalues --    0.47366   0.47710   0.48154   0.48464   0.49097
  Beta virt. eigenvalues --    0.49195   0.49443   0.50057   0.50467   0.50512
  Beta virt. eigenvalues --    0.50552   0.51108   0.51153   0.51355   0.51471
  Beta virt. eigenvalues --    0.51975   0.52381   0.52698   0.52889   0.53292
  Beta virt. eigenvalues --    0.53407   0.54200   0.54683   0.54848   0.54899
  Beta virt. eigenvalues --    0.55399   0.55531   0.56258   0.56479   0.56527
  Beta virt. eigenvalues --    0.56708   0.56819   0.56989   0.57163   0.57168
  Beta virt. eigenvalues --    0.57174   0.57190   0.57322   0.57823   0.57836
  Beta virt. eigenvalues --    0.57840   0.58233   0.58658   0.58693   0.58935
  Beta virt. eigenvalues --    0.59364   0.59367   0.59714   0.59745   0.59762
  Beta virt. eigenvalues --    0.59772   0.59914   0.60060   0.60152   0.60210
  Beta virt. eigenvalues --    0.60292   0.60309   0.60931   0.61167   0.61318
  Beta virt. eigenvalues --    0.61370   0.61539   0.61726   0.61858   0.61884
  Beta virt. eigenvalues --    0.62460   0.62810   0.62979   0.63078   0.63346
  Beta virt. eigenvalues --    0.63395   0.64128   0.64269   0.64353   0.64703
  Beta virt. eigenvalues --    0.65393   0.65579   0.65786   0.66322   0.66462
  Beta virt. eigenvalues --    0.66670   0.66764   0.67213   0.67328   0.69227
  Beta virt. eigenvalues --    0.69247   0.69535   0.69956   0.70126   0.70168
  Beta virt. eigenvalues --    0.70383   0.70876   0.71001   0.71396   0.71553
  Beta virt. eigenvalues --    0.71743   0.72021   0.72548   0.72760   0.72808
  Beta virt. eigenvalues --    0.73059   0.73239   0.73500   0.73540   0.73565
  Beta virt. eigenvalues --    0.74366   0.74702   0.74805   0.75018   0.75145
  Beta virt. eigenvalues --    0.75426   0.75462   0.75829   0.76029   0.76071
  Beta virt. eigenvalues --    0.76329   0.76422   0.77105   0.77953   0.78072
  Beta virt. eigenvalues --    0.78080   0.78364   0.78836   0.79299   0.79389
  Beta virt. eigenvalues --    0.80028   0.80174   0.80339   0.80479   0.81052
  Beta virt. eigenvalues --    0.81203   0.81904   0.82124   0.82439   0.82765
  Beta virt. eigenvalues --    0.82819   0.82924   0.83183   0.83210   0.83691
  Beta virt. eigenvalues --    0.83847   0.83887   0.84377   0.84616   0.84987
  Beta virt. eigenvalues --    0.86216   0.86279   0.86316   0.86684   0.86982
  Beta virt. eigenvalues --    0.87316   0.87368   0.88064   0.88177   0.88291
  Beta virt. eigenvalues --    0.89136   0.89285   0.89501   0.89772   0.89778
  Beta virt. eigenvalues --    0.90011   0.90456   0.90962   0.91598   0.91880
  Beta virt. eigenvalues --    0.92228   0.92732   0.93129   0.93203   0.93574
  Beta virt. eigenvalues --    0.93626   0.94036   0.94212   0.94388   0.94775
  Beta virt. eigenvalues --    0.94778   0.95290   0.96070   0.96312   0.96878
  Beta virt. eigenvalues --    0.97062   0.97206   0.97429   0.97968   0.98012
  Beta virt. eigenvalues --    0.98599   0.98925   0.99386   0.99419   0.99422
  Beta virt. eigenvalues --    0.99434   0.99436   0.99462   0.99776   0.99939
  Beta virt. eigenvalues --    0.99955   0.99977   1.00596   1.00648   1.00994
  Beta virt. eigenvalues --    1.01159   1.01343   1.01829   1.01835   1.02041
  Beta virt. eigenvalues --    1.02048   1.02090   1.02094   1.02375   1.02771
  Beta virt. eigenvalues --    1.02775   1.03204   1.03419   1.03915   1.04203
  Beta virt. eigenvalues --    1.04372   1.05114   1.05478   1.05956   1.06050
  Beta virt. eigenvalues --    1.06099   1.07110   1.07222   1.08385   1.08532
  Beta virt. eigenvalues --    1.09659   1.10135   1.10158   1.10453   1.11445
  Beta virt. eigenvalues --    1.11716   1.11803   1.12002   1.12081   1.12265
  Beta virt. eigenvalues --    1.12611   1.13064   1.13778   1.13906   1.13963
  Beta virt. eigenvalues --    1.14145   1.14352   1.14451   1.14479   1.14501
  Beta virt. eigenvalues --    1.14525   1.15355   1.16396   1.16552   1.16669
  Beta virt. eigenvalues --    1.17405   1.17535   1.18096   1.18514   1.18592
  Beta virt. eigenvalues --    1.19516   1.20073   1.20223   1.21464   1.21802
  Beta virt. eigenvalues --    1.22031   1.22129   1.22520   1.22747   1.23504
  Beta virt. eigenvalues --    1.23592   1.24564   1.25216   1.25334   1.25810
  Beta virt. eigenvalues --    1.26048   1.26438   1.27633   1.28636   1.29663
  Beta virt. eigenvalues --    1.29988   1.31730   1.32095   1.33702   1.33860
  Beta virt. eigenvalues --    1.34289   1.34952   1.36297   1.36714   1.36889
  Beta virt. eigenvalues --    1.36949   1.37527   1.38038   1.38070   1.38214
  Beta virt. eigenvalues --    1.38626   1.40234   1.41072   1.41173   1.41254
  Beta virt. eigenvalues --    1.41510   1.41708   1.41790   1.42365   1.42442
  Beta virt. eigenvalues --    1.42681   1.43257   1.43384   1.43572   1.43780
  Beta virt. eigenvalues --    1.43902   1.44103   1.44366   1.44517   1.44613
  Beta virt. eigenvalues --    1.45578   1.45591   1.46018   1.46124   1.46700
  Beta virt. eigenvalues --    1.48149   1.48381   1.48579   1.48595   1.48668
  Beta virt. eigenvalues --    1.48715   1.49145   1.49209   1.49408   1.49415
  Beta virt. eigenvalues --    1.50183   1.50813   1.50845   1.50987   1.51279
  Beta virt. eigenvalues --    1.51556   1.51632   1.51823   1.52089   1.52156
  Beta virt. eigenvalues --    1.52774   1.52925   1.53933   1.53944   1.54019
  Beta virt. eigenvalues --    1.54084   1.54695   1.54834   1.54847   1.54920
  Beta virt. eigenvalues --    1.55034   1.55315   1.55455   1.55761   1.55892
  Beta virt. eigenvalues --    1.56005   1.56259   1.56699   1.56890   1.56994
  Beta virt. eigenvalues --    1.57632   1.58349   1.59438   1.59494   1.60045
  Beta virt. eigenvalues --    1.60112   1.60326   1.61113   1.61431   1.61690
  Beta virt. eigenvalues --    1.61869   1.62018   1.62067   1.62357   1.62536
  Beta virt. eigenvalues --    1.62765   1.62765   1.63120   1.63643   1.64361
  Beta virt. eigenvalues --    1.64776   1.64831   1.65489   1.65851   1.66645
  Beta virt. eigenvalues --    1.66841   1.67424   1.67795   1.67802   1.67898
  Beta virt. eigenvalues --    1.67988   1.68029   1.68204   1.68572   1.68643
  Beta virt. eigenvalues --    1.69196   1.69983   1.70433   1.70814   1.71260
  Beta virt. eigenvalues --    1.71305   1.71376   1.71597   1.71830   1.72539
  Beta virt. eigenvalues --    1.72650   1.72818   1.72892   1.72923   1.73132
  Beta virt. eigenvalues --    1.73158   1.73685   1.73734   1.74227   1.74301
  Beta virt. eigenvalues --    1.74719   1.75058   1.75489   1.75581   1.75634
  Beta virt. eigenvalues --    1.76073   1.76623   1.76871   1.77070   1.77669
  Beta virt. eigenvalues --    1.77720   1.78404   1.78608   1.78626   1.79021
  Beta virt. eigenvalues --    1.79341   1.80225   1.80774   1.80795   1.81276
  Beta virt. eigenvalues --    1.81378   1.81671   1.81786   1.82256   1.82418
  Beta virt. eigenvalues --    1.82691   1.82692   1.82704   1.82712   1.82745
  Beta virt. eigenvalues --    1.83408   1.83492   1.83796   1.84051   1.84214
  Beta virt. eigenvalues --    1.85501   1.86243   1.86446   1.87136   1.87149
  Beta virt. eigenvalues --    1.87417   1.87609   1.87668   1.88725   1.89041
  Beta virt. eigenvalues --    1.89733   1.90265   1.90424   1.90844   1.90880
  Beta virt. eigenvalues --    1.91336   1.91397   1.91573   1.92125   1.92436
  Beta virt. eigenvalues --    1.92649   1.92718   1.93683   1.93766   1.93865
  Beta virt. eigenvalues --    1.93995   1.94318   1.94441   1.94898   1.94970
  Beta virt. eigenvalues --    1.95130   1.95322   1.95424   1.95432   1.95515
  Beta virt. eigenvalues --    1.95859   1.96055   1.96213   1.96761   1.97325
  Beta virt. eigenvalues --    1.98139   1.99027   1.99931   2.00024   2.00570
  Beta virt. eigenvalues --    2.00579   2.00753   2.00767   2.00915   2.01044
  Beta virt. eigenvalues --    2.01054   2.03059   2.03194   2.03214   2.03227
  Beta virt. eigenvalues --    2.03241   2.03571   2.04333   2.04596   2.04893
  Beta virt. eigenvalues --    2.06067   2.06590   2.08002   2.08543   2.09472
  Beta virt. eigenvalues --    2.09599   2.10327   2.11118   2.11331   2.11439
  Beta virt. eigenvalues --    2.11777   2.11833   2.13072   2.13779   2.14554
  Beta virt. eigenvalues --    2.14691   2.14975   2.15024   2.15024   2.15216
  Beta virt. eigenvalues --    2.15392   2.15413   2.16515   2.17107   2.17144
  Beta virt. eigenvalues --    2.17146   2.17874   2.19069   2.19846   2.20221
  Beta virt. eigenvalues --    2.20569   2.20824   2.20872   2.21350   2.21448
  Beta virt. eigenvalues --    2.22272   2.23045   2.23535   2.25213   2.25385
  Beta virt. eigenvalues --    2.25576   2.26368   2.26414   2.26521   2.27005
  Beta virt. eigenvalues --    2.27174   2.28093   2.28796   2.30088   2.30514
  Beta virt. eigenvalues --    2.30854   2.30898   2.30947   2.32534   2.32642
  Beta virt. eigenvalues --    2.32867   2.33027   2.33614   2.33962   2.34218
  Beta virt. eigenvalues --    2.34898   2.35084   2.35277   2.35305   2.35733
  Beta virt. eigenvalues --    2.36386   2.36715   2.36806   2.37397   2.37626
  Beta virt. eigenvalues --    2.39535   2.40011   2.40229   2.41045   2.41094
  Beta virt. eigenvalues --    2.41427   2.41468   2.41617   2.42874   2.43297
  Beta virt. eigenvalues --    2.43513   2.45656   2.45709   2.45853   2.47291
  Beta virt. eigenvalues --    2.47532   2.47649   2.48084   2.48232   2.48730
  Beta virt. eigenvalues --    2.49542   2.49672   2.49931   2.50059   2.50158
  Beta virt. eigenvalues --    2.51066   2.52051   2.52370   2.52646   2.52688
  Beta virt. eigenvalues --    2.53401   2.53598   2.54092   2.54588   2.54823
  Beta virt. eigenvalues --    2.55057   2.55280   2.55677   2.55779   2.55876
  Beta virt. eigenvalues --    2.56129   2.56538   2.56548   2.56900   2.57445
  Beta virt. eigenvalues --    2.58023   2.58251   2.58507   2.58946   2.59074
  Beta virt. eigenvalues --    2.60760   2.60959   2.61069   2.61262   2.61614
  Beta virt. eigenvalues --    2.61686   2.61987   2.62315   2.62551   2.62609
  Beta virt. eigenvalues --    2.62648   2.63425   2.63431   2.63895   2.64104
  Beta virt. eigenvalues --    2.64177   2.64347   2.64641   2.65070   2.65178
  Beta virt. eigenvalues --    2.66114   2.66260   2.66497   2.66540   2.66541
  Beta virt. eigenvalues --    2.66651   2.66659   2.66992   2.67078   2.67090
  Beta virt. eigenvalues --    2.67228   2.67591   2.67759   2.67871   2.68228
  Beta virt. eigenvalues --    2.68926   2.69121   2.69191   2.69241   2.69646
  Beta virt. eigenvalues --    2.69925   2.71591   2.72143   2.72312   2.72380
  Beta virt. eigenvalues --    2.72508   2.72918   2.73020   2.73604   2.74739
  Beta virt. eigenvalues --    2.74741   2.74748   2.74927   2.75020   2.76155
  Beta virt. eigenvalues --    2.76169   2.76179   2.76475   2.76542   2.76572
  Beta virt. eigenvalues --    2.77103   2.77360   2.77712   2.77810   2.77982
  Beta virt. eigenvalues --    2.78220   2.78276   2.78278   2.78527   2.78693
  Beta virt. eigenvalues --    2.78705   2.79133   2.79444   2.79649   2.79664
  Beta virt. eigenvalues --    2.79757   2.79833   2.80014   2.81905   2.82234
  Beta virt. eigenvalues --    2.82549   2.82776   2.83190   2.83421   2.83956
  Beta virt. eigenvalues --    2.84555   2.84828   2.84891   2.85091   2.85254
  Beta virt. eigenvalues --    2.86318   2.87161   2.87645   2.88093   2.88318
  Beta virt. eigenvalues --    2.88486   2.88884   2.89035   2.89821   2.90287
  Beta virt. eigenvalues --    2.91479   2.92196   2.92410   2.92611   2.92649
  Beta virt. eigenvalues --    2.93320   2.93598   2.93884   2.94311   2.94747
  Beta virt. eigenvalues --    2.95584   2.95799   2.96116   2.96218   2.96366
  Beta virt. eigenvalues --    2.96557   2.97214   2.97428   2.97486   2.97715
  Beta virt. eigenvalues --    2.98421   2.99040   2.99131   3.01242   3.02252
  Beta virt. eigenvalues --    3.03397   3.08714   3.09020   3.09353   3.11281
  Beta virt. eigenvalues --    3.12467   3.12659   3.12715   3.12857   3.15100
  Beta virt. eigenvalues --    3.15720   3.16890   3.17384   3.17488   3.18846
  Beta virt. eigenvalues --    3.18996   3.19438   3.19626   3.19771   3.23171
  Beta virt. eigenvalues --    3.23356   3.23393   3.24532   3.26832   3.27186
  Beta virt. eigenvalues --    3.27354   3.31232   3.32362   3.32762   3.32963
  Beta virt. eigenvalues --    3.33255   3.34558   3.34955   3.35519   3.36171
  Beta virt. eigenvalues --    3.36751   3.37679   3.38532   3.39172   3.39593
  Beta virt. eigenvalues --    3.39752   3.40259   3.40665   3.41168   3.41521
  Beta virt. eigenvalues --    3.42460   3.42901   3.43052   3.43270   3.44799
  Beta virt. eigenvalues --    3.44926   3.46191   3.46729   3.46763   3.46922
  Beta virt. eigenvalues --    3.47838   3.48074   3.49192   3.49502   3.49835
  Beta virt. eigenvalues --    3.49904   3.50033   3.50038   3.50183   3.50830
  Beta virt. eigenvalues --    3.52207   3.53624   3.54889   3.55149   3.55213
  Beta virt. eigenvalues --    3.55989   3.57300   3.58497   3.59312   3.59869
  Beta virt. eigenvalues --    3.60496   3.60703   3.62347   3.63175   3.63258
  Beta virt. eigenvalues --    3.64483   3.65035   3.65132   3.65631   3.68169
  Beta virt. eigenvalues --    3.68174   3.74182   3.74214   3.75600   3.77486
  Beta virt. eigenvalues --    3.77776   3.78091   3.78726   3.79932   3.81027
  Beta virt. eigenvalues --    3.81705   3.82006   3.83449   3.83516   3.85984
  Beta virt. eigenvalues --    3.86859   3.88304   3.88596   3.89572   3.90825
  Beta virt. eigenvalues --    3.91224   3.92012   3.92298   3.92815   3.93065
  Beta virt. eigenvalues --    3.93679   3.95751   3.96518   3.97102   3.97225
  Beta virt. eigenvalues --    3.97470   3.97654   4.02335   4.03589   4.03601
  Beta virt. eigenvalues --    4.04278   4.04590   4.04746   4.04923   4.05366
  Beta virt. eigenvalues --    4.05396   4.05549   4.05741   4.06631   4.06636
  Beta virt. eigenvalues --    4.06723   4.08584   4.09836   4.14208   4.16304
  Beta virt. eigenvalues --    4.17838   4.20727   4.21045   4.21431   4.21711
  Beta virt. eigenvalues --    4.23618   4.26112   4.28787   4.29732   4.33805
  Beta virt. eigenvalues --    4.35025   4.35403   4.37217   4.43055   4.44679
  Beta virt. eigenvalues --    4.49303   4.49777   4.50613   4.50616   4.52969
  Beta virt. eigenvalues --    4.53912   4.55002   4.55799   4.58152   4.59999
  Beta virt. eigenvalues --    4.61907   4.66236   4.68116   4.72295   4.72620
  Beta virt. eigenvalues --    4.75418   4.89401   4.91827   5.03503   5.16681
  Beta virt. eigenvalues --    5.16742   5.17259   5.21586   5.22363   5.22642
  Beta virt. eigenvalues --    5.26282   5.27583   5.33150   5.33361   5.43985
  Beta virt. eigenvalues --    6.60795   6.61137   6.71562   6.72823   6.77937
  Beta virt. eigenvalues --    6.78836   7.03393   7.06048   7.22082   7.23921
  Beta virt. eigenvalues --    8.67631   8.70868   8.84009   8.84257   8.93776
  Beta virt. eigenvalues --    9.04065  23.56679  23.63997  23.68197  23.68816
  Beta virt. eigenvalues --   23.77131  23.77424  23.83671  23.84070  23.84338
  Beta virt. eigenvalues --   23.84599  23.87914  23.89450  23.94007  23.94131
  Beta virt. eigenvalues --   23.95758  23.95864  23.96430  23.96638  23.99277
  Beta virt. eigenvalues --   23.99300  23.99851  24.00004  24.06192  24.06256
  Beta virt. eigenvalues --   24.07380  24.07815  24.07986  24.08278  24.08398
  Beta virt. eigenvalues --   24.08400  24.08433  24.09030  24.10311  24.10409
  Beta virt. eigenvalues --   24.11994  24.12305  24.14585  24.14588  24.16605
  Beta virt. eigenvalues --   24.16621  24.16632  24.16661  24.20706  24.21881
  Beta virt. eigenvalues --   24.21930  24.22017  24.22963  24.23014  24.24130
  Beta virt. eigenvalues --   24.24172  24.24518  24.24732  24.24981  24.25404
  Beta virt. eigenvalues --   30.06043  30.09211  35.69451  35.72883  35.73158
  Beta virt. eigenvalues --   35.74099  35.74113  35.75959  35.77271  35.77614
  Beta virt. eigenvalues --   35.79490  35.79754  35.79814  35.90964  36.17977
  Beta virt. eigenvalues --   36.20284  36.33202  36.33375  36.41945  36.49583
  Beta virt. eigenvalues --  162.50447 162.52995 845.85963 845.88560
          Condensed to atoms (all electrons):
          Atomic-Atomic Spin Densities.
 Mulliken charges and spin densities:
               1          2
     1  Ni   1.497747   1.695399
     2  N   -0.618923   0.072222
     3  N   -0.634034   0.058358
     4  N   -0.618923   0.072222
     5  N   -0.754726   0.055328
     6  C   -0.058507   0.024645
     7  C    0.318640   0.040029
     8  N   -0.831230   0.315329
     9  C    0.185794   0.021476
    10  C    0.292253  -0.003457
    11  C    0.119340  -0.022218
    12  H    0.124064   0.001019
    13  C   -0.058507   0.024645
    14  N   -0.634034   0.058358
    15  C    0.185794   0.021476
    16  C    0.228270   0.000768
    17  C   -0.087398   0.004480
    18  H    0.135620   0.000894
    19  C    0.292253  -0.003457
    20  C   -0.092635   0.003764
    21  H    0.135000   0.001050
    22  C    0.035308  -0.006591
    23  H    0.136303   0.000304
    24  C    0.160039  -0.008975
    25  H    0.161411   0.002723
    26  C    0.119340  -0.022218
    27  H    0.124064   0.001019
    28  C    0.026147  -0.007617
    29  H    0.138059   0.000412
    30  C   -0.186082   0.005576
    31  H    0.133362   0.001042
    32  C    0.318640   0.040029
    33  C    0.162893  -0.022287
    34  H    0.137800   0.003141
    35  C   -0.087398   0.004480
    36  H    0.135620   0.000894
    37  C    0.162893  -0.022287
    38  H    0.137800   0.003141
    39  C    0.228270   0.000768
    40  C   -0.205950   0.044060
    41  H    0.129435  -0.001448
    42  C   -0.205950   0.044060
    43  H    0.129435  -0.001448
    44  C   -0.092635   0.003764
    45  H    0.135000   0.001050
    46  C    0.160039  -0.008975
    47  H    0.161411   0.002723
    48  C   -0.186082   0.005576
    49  H    0.133362   0.001042
    50  C    0.035308  -0.006591
    51  H    0.136303   0.000304
    52  N   -0.618923   0.072222
    53  N   -0.618923   0.072222
    54  C   -0.058507   0.024645
    55  C    0.318640   0.040029
    56  N   -0.831230   0.315329
    57  C    0.185794   0.021476
    58  C    0.119340  -0.022218
    59  H    0.124064   0.001019
    60  C   -0.058507   0.024645
    61  C    0.185794   0.021476
    62  C    0.119340  -0.022218
    63  H    0.124064   0.001019
    64  C    0.318640   0.040029
    65  C    0.162893  -0.022287
    66  H    0.137800   0.003141
    67  C    0.162893  -0.022287
    68  H    0.137800   0.003141
    69  C   -0.205950   0.044060
    70  H    0.129435  -0.001448
    71  C   -0.205950   0.044060
    72  H    0.129435  -0.001448
    73  Ni   1.497747   1.695399
    74  N   -0.634034   0.058358
    75  N   -0.754726   0.055328
    76  C    0.292253  -0.003457
    77  N   -0.634034   0.058358
    78  C    0.228270   0.000768
    79  C   -0.087398   0.004480
    80  H    0.135620   0.000894
    81  C    0.292253  -0.003457
    82  C   -0.092635   0.003764
    83  H    0.135000   0.001050
    84  C    0.035308  -0.006591
    85  H    0.136303   0.000304
    86  C    0.160039  -0.008975
    87  H    0.161411   0.002723
    88  C    0.026147  -0.007617
    89  H    0.138059   0.000412
    90  C   -0.186082   0.005576
    91  H    0.133362   0.001042
    92  C   -0.087398   0.004480
    93  H    0.135620   0.000894
    94  C    0.228270   0.000768
    95  C   -0.092635   0.003764
    96  H    0.135000   0.001050
    97  C    0.160039  -0.008975
    98  H    0.161411   0.002723
    99  C   -0.186082   0.005576
   100  H    0.133362   0.001042
   101  C    0.035308  -0.006591
   102  H    0.136303   0.000304
 Sum of Mulliken charges =   3.00000   5.00000
 Mulliken charges and spin densities with hydrogens summed into heavy atoms:
               1          2
     1  Ni   1.497747   1.695399
     2  N   -0.618923   0.072222
     3  N   -0.634034   0.058358
     4  N   -0.618923   0.072222
     5  N   -0.754726   0.055328
     6  C   -0.058507   0.024645
     7  C    0.318640   0.040029
     8  N   -0.831230   0.315329
     9  C    0.185794   0.021476
    10  C    0.292253  -0.003457
    11  C    0.243404  -0.021199
    13  C   -0.058507   0.024645
    14  N   -0.634034   0.058358
    15  C    0.185794   0.021476
    16  C    0.228270   0.000768
    17  C    0.048222   0.005374
    19  C    0.292253  -0.003457
    20  C    0.042365   0.004814
    22  C    0.171612  -0.006287
    24  C    0.321450  -0.006252
    26  C    0.243404  -0.021199
    28  C    0.164206  -0.007205
    30  C   -0.052720   0.006618
    32  C    0.318640   0.040029
    33  C    0.300693  -0.019146
    35  C    0.048222   0.005374
    37  C    0.300693  -0.019146
    39  C    0.228270   0.000768
    40  C   -0.076515   0.042612
    42  C   -0.076515   0.042612
    44  C    0.042365   0.004814
    46  C    0.321450  -0.006252
    48  C   -0.052720   0.006618
    50  C    0.171612  -0.006287
    52  N   -0.618923   0.072222
    53  N   -0.618923   0.072222
    54  C   -0.058507   0.024645
    55  C    0.318640   0.040029
    56  N   -0.831230   0.315329
    57  C    0.185794   0.021476
    58  C    0.243404  -0.021199
    60  C   -0.058507   0.024645
    61  C    0.185794   0.021476
    62  C    0.243404  -0.021199
    64  C    0.318640   0.040029
    65  C    0.300693  -0.019146
    67  C    0.300693  -0.019146
    69  C   -0.076515   0.042612
    71  C   -0.076515   0.042612
    73  Ni   1.497747   1.695399
    74  N   -0.634034   0.058358
    75  N   -0.754726   0.055328
    76  C    0.292253  -0.003457
    77  N   -0.634034   0.058358
    78  C    0.228270   0.000768
    79  C    0.048222   0.005374
    81  C    0.292253  -0.003457
    82  C    0.042365   0.004814
    84  C    0.171612  -0.006287
    86  C    0.321450  -0.006252
    88  C    0.164206  -0.007205
    90  C   -0.052720   0.006618
    92  C    0.048222   0.005374
    94  C    0.228270   0.000768
    95  C    0.042365   0.004814
    97  C    0.321450  -0.006252
    99  C   -0.052720   0.006618
   101  C    0.171612  -0.006287
 Electronic spatial extent (au):  <R**2>=          46208.8641
 Charge=              3.0000 electrons
 Dipole moment (field-independent basis, Debye):
    X=              0.0000    Y=             -0.0000    Z=             -0.0000  Tot=              0.0000
 Quadrupole moment (field-independent basis, Debye-Ang):
   XX=             12.5191   YY=           -278.5095   ZZ=           -244.1344
   XY=             -0.0000   XZ=              0.0000   YZ=             -0.0000
 Traceless Quadrupole moment (field-independent basis, Debye-Ang):
   XX=            182.5607   YY=           -108.4679   ZZ=            -74.0928
   XY=             -0.0000   XZ=              0.0000   YZ=             -0.0000
 Octapole moment (field-independent basis, Debye-Ang**2):
  XXX=              0.0000  YYY=             -0.0000  ZZZ=              0.0000  XYY=             -0.0000
  XXY=              0.0000  XXZ=             -0.0000  XZZ=             -0.0000  YZZ=              0.0000
  YYZ=              0.0000  XYZ=             -0.0000
 Hexadecapole moment (field-independent basis, Debye-Ang**3):
 XXXX=         -19370.6283 YYYY=          -7795.1601 ZZZZ=          -7237.0962 XXXY=             -0.0000
 XXXZ=             -0.0000 YYYX=             -0.0000 YYYZ=              0.0000 ZZZX=              0.0000
 ZZZY=              0.0000 XXYY=          -7825.3206 XXZZ=          -5008.4072 YYZZ=          -4058.1431
 XXYZ=             -0.0000 YYXZ=             -0.0000 ZZXY=             -0.0000
 N-N= 1.255739759765D+04 E-N=-3.855183751721D+04  KE= 5.740568041282D+03
 Symmetry AG   KE= 1.847919883312D+03
 Symmetry B1G  KE= 4.727418692751D+02
 Symmetry B2G  KE= 5.138120410660D+02
 Symmetry B3G  KE= 3.653254163696D+01
 Symmetry AU   KE= 3.439777738564D+01
 Symmetry B1U  KE= 5.140074962690D+02
 Symmetry B2U  KE= 4.777395910310D+02
 Symmetry B3U  KE= 1.843416841306D+03
 Symmetry AG   SP= 2.000000000000D+00
 Symmetry B1G  SP=-1.755836534517D-14
 Symmetry B2G  SP= 2.971639081995D-14
 Symmetry B3G  SP=-1.213167343276D-14
 Symmetry AU   SP=-4.976105112816D-15
 Symmetry B1U  SP= 1.000000000000D+00
 Symmetry B2U  SP= 1.011397827197D-14
 Symmetry B3U  SP= 2.000000000000D+00
                          Isotropic Fermi Contact Couplings
        Atom                 a.u.       MegaHertz       Gauss      10(-4) cm-1
     1  Ni(61)            -0.18585      14.87302       5.30706       4.96111
     2  N(14)              0.09560       6.17760       2.20432       2.06062
     3  N(14)              0.11052       7.14178       2.54837       2.38224
     4  N(14)              0.09560       6.17760       2.20432       2.06062
     5  N(14)              0.08784       5.67620       2.02541       1.89338
     6  C(13)              0.00177       0.39889       0.14233       0.13305
     7  C(13)             -0.00709      -1.59398      -0.56877      -0.53169
     8  N(14)              0.11464       7.40835       2.64348       2.47116
     9  C(13)             -0.00206      -0.46245      -0.16501      -0.15426
    10  C(13)             -0.00242      -0.54302      -0.19376      -0.18113
    11  C(13)             -0.00264      -0.59287      -0.21155      -0.19776
    12  H(1)               0.00019       0.16814       0.05999       0.05608
    13  C(13)              0.00177       0.39889       0.14233       0.13305
    14  N(14)              0.11052       7.14178       2.54837       2.38224
    15  C(13)             -0.00206      -0.46245      -0.16501      -0.15426
    16  C(13)             -0.00187      -0.42060      -0.15008      -0.14030
    17  C(13)              0.00221       0.49583       0.17693       0.16539
    18  H(1)               0.00044       0.39602       0.14131       0.13210
    19  C(13)             -0.00242      -0.54302      -0.19376      -0.18113
    20  C(13)              0.00184       0.41304       0.14738       0.13777
    21  H(1)               0.00053       0.46974       0.16762       0.15669
    22  C(13)              0.00013       0.02915       0.01040       0.00972
    23  H(1)               0.00005       0.04875       0.01739       0.01626
    24  C(13)             -0.00277      -0.62187      -0.22190      -0.20743
    25  H(1)               0.00102       0.91410       0.32617       0.30491
    26  C(13)             -0.00264      -0.59287      -0.21155      -0.19776
    27  H(1)               0.00019       0.16814       0.05999       0.05608
    28  C(13)              0.00045       0.10176       0.03631       0.03394
    29  H(1)               0.00008       0.06778       0.02419       0.02261
    30  C(13)              0.00304       0.68418       0.24413       0.22822
    31  H(1)               0.00029       0.25659       0.09156       0.08559
    32  C(13)             -0.00709      -1.59398      -0.56877      -0.53169
    33  C(13)             -0.00288      -0.64704      -0.23088      -0.21583
    34  H(1)               0.00099       0.88061       0.31422       0.29374
    35  C(13)              0.00221       0.49583       0.17693       0.16539
    36  H(1)               0.00044       0.39602       0.14131       0.13210
    37  C(13)             -0.00288      -0.64704      -0.23088      -0.21583
    38  H(1)               0.00099       0.88061       0.31422       0.29374
    39  C(13)             -0.00187      -0.42060      -0.15008      -0.14030
    40  C(13)              0.00546       1.22669       0.43771       0.40918
    41  H(1)              -0.00024      -0.21318      -0.07607      -0.07111
    42  C(13)              0.00546       1.22669       0.43771       0.40918
    43  H(1)              -0.00024      -0.21318      -0.07607      -0.07111
    44  C(13)              0.00184       0.41304       0.14738       0.13777
    45  H(1)               0.00053       0.46974       0.16762       0.15669
    46  C(13)             -0.00277      -0.62187      -0.22190      -0.20743
    47  H(1)               0.00102       0.91410       0.32617       0.30491
    48  C(13)              0.00304       0.68418       0.24413       0.22822
    49  H(1)               0.00029       0.25659       0.09156       0.08559
    50  C(13)              0.00013       0.02915       0.01040       0.00972
    51  H(1)               0.00005       0.04875       0.01739       0.01626
    52  N(14)              0.09560       6.17760       2.20432       2.06062
    53  N(14)              0.09560       6.17760       2.20432       2.06062
    54  C(13)              0.00177       0.39889       0.14233       0.13305
    55  C(13)             -0.00709      -1.59398      -0.56877      -0.53169
    56  N(14)              0.11464       7.40835       2.64348       2.47116
    57  C(13)             -0.00206      -0.46245      -0.16501      -0.15426
    58  C(13)             -0.00264      -0.59287      -0.21155      -0.19776
    59  H(1)               0.00019       0.16814       0.05999       0.05608
    60  C(13)              0.00177       0.39889       0.14233       0.13305
    61  C(13)             -0.00206      -0.46245      -0.16501      -0.15426
    62  C(13)             -0.00264      -0.59287      -0.21155      -0.19776
    63  H(1)               0.00019       0.16814       0.05999       0.05608
    64  C(13)             -0.00709      -1.59398      -0.56877      -0.53169
    65  C(13)             -0.00288      -0.64704      -0.23088      -0.21583
    66  H(1)               0.00099       0.88061       0.31422       0.29374
    67  C(13)             -0.00288      -0.64704      -0.23088      -0.21583
    68  H(1)               0.00099       0.88061       0.31422       0.29374
    69  C(13)              0.00546       1.22669       0.43771       0.40918
    70  H(1)              -0.00024      -0.21318      -0.07607      -0.07111
    71  C(13)              0.00546       1.22669       0.43771       0.40918
    72  H(1)              -0.00024      -0.21318      -0.07607      -0.07111
    73  Ni(61)            -0.18585      14.87302       5.30706       4.96111
    74  N(14)              0.11052       7.14178       2.54837       2.38224
    75  N(14)              0.08784       5.67620       2.02541       1.89338
    76  C(13)             -0.00242      -0.54302      -0.19376      -0.18113
    77  N(14)              0.11052       7.14178       2.54837       2.38224
    78  C(13)             -0.00187      -0.42060      -0.15008      -0.14030
    79  C(13)              0.00221       0.49583       0.17693       0.16539
    80  H(1)               0.00044       0.39602       0.14131       0.13210
    81  C(13)             -0.00242      -0.54302      -0.19376      -0.18113
    82  C(13)              0.00184       0.41304       0.14738       0.13777
    83  H(1)               0.00053       0.46974       0.16762       0.15669
    84  C(13)              0.00013       0.02915       0.01040       0.00972
    85  H(1)               0.00005       0.04875       0.01739       0.01626
    86  C(13)             -0.00277      -0.62187      -0.22190      -0.20743
    87  H(1)               0.00102       0.91410       0.32617       0.30491
    88  C(13)              0.00045       0.10176       0.03631       0.03394
    89  H(1)               0.00008       0.06778       0.02419       0.02261
    90  C(13)              0.00304       0.68418       0.24413       0.22822
    91  H(1)               0.00029       0.25659       0.09156       0.08559
    92  C(13)              0.00221       0.49583       0.17693       0.16539
    93  H(1)               0.00044       0.39602       0.14131       0.13210
    94  C(13)             -0.00187      -0.42060      -0.15008      -0.14030
    95  C(13)              0.00184       0.41304       0.14738       0.13777
    96  H(1)               0.00053       0.46974       0.16762       0.15669
    97  C(13)             -0.00277      -0.62187      -0.22190      -0.20743
    98  H(1)               0.00102       0.91410       0.32617       0.30491
    99  C(13)              0.00304       0.68418       0.24413       0.22822
   100  H(1)               0.00029       0.25659       0.09156       0.08559
   101  C(13)              0.00013       0.02915       0.01040       0.00972
   102  H(1)               0.00005       0.04875       0.01739       0.01626
 --------------------------------------------------------
       Center         ----  Spin Dipole Couplings  ----
                      3XX-RR        3YY-RR        3ZZ-RR
 --------------------------------------------------------
     1   Atom        0.049455     -0.138449      0.088995
     2   Atom       -0.080670      0.095405     -0.014735
     3   Atom       -0.083357     -0.086650      0.170006
     4   Atom       -0.080670      0.095405     -0.014735
     5   Atom        0.196499     -0.083257     -0.113242
     6   Atom       -0.014029     -0.006533      0.020562
     7   Atom        0.002013     -0.021390      0.019376
     8   Atom       -0.149611     -0.444736      0.594348
     9   Atom       -0.001453     -0.005605      0.007058
    10   Atom        0.019214     -0.025308      0.006094
    11   Atom        0.008831      0.014483     -0.023313
    12   Atom       -0.000309      0.003614     -0.003305
    13   Atom       -0.014029     -0.006533      0.020562
    14   Atom       -0.083357     -0.086650      0.170006
    15   Atom       -0.001453     -0.005605      0.007058
    16   Atom        0.017093     -0.024754      0.007661
    17   Atom        0.009834     -0.004125     -0.005709
    18   Atom        0.004185     -0.002940     -0.001245
    19   Atom        0.019214     -0.025308      0.006094
    20   Atom       -0.001531     -0.004553      0.006084
    21   Atom        0.001539     -0.003029      0.001491
    22   Atom        0.001498     -0.010190      0.008693
    23   Atom       -0.000477     -0.002105      0.002582
    24   Atom       -0.001648     -0.022912      0.024560
    25   Atom       -0.001937     -0.013426      0.015363
    26   Atom        0.008831      0.014483     -0.023313
    27   Atom       -0.000309      0.003614     -0.003305
    28   Atom        0.011145     -0.011500      0.000356
    29   Atom        0.003331     -0.001956     -0.001376
    30   Atom       -0.005748     -0.004188      0.009936
    31   Atom       -0.001723     -0.003464      0.005187
    32   Atom        0.002013     -0.021390      0.019376
    33   Atom        0.002676      0.030740     -0.033415
    34   Atom       -0.002403      0.011356     -0.008953
    35   Atom        0.009834     -0.004125     -0.005709
    36   Atom        0.004185     -0.002940     -0.001245
    37   Atom        0.002676      0.030740     -0.033415
    38   Atom       -0.002403      0.011356     -0.008953
    39   Atom        0.017093     -0.024754      0.007661
    40   Atom       -0.024473     -0.010104      0.034577
    41   Atom       -0.002242      0.005174     -0.002932
    42   Atom       -0.024473     -0.010104      0.034577
    43   Atom       -0.002242      0.005174     -0.002932
    44   Atom       -0.001531     -0.004553      0.006084
    45   Atom        0.001539     -0.003029      0.001491
    46   Atom       -0.001648     -0.022912      0.024560
    47   Atom       -0.001937     -0.013426      0.015363
    48   Atom       -0.005748     -0.004188      0.009936
    49   Atom       -0.001723     -0.003464      0.005187
    50   Atom        0.001498     -0.010190      0.008693
    51   Atom       -0.000477     -0.002105      0.002582
    52   Atom       -0.080670      0.095405     -0.014735
    53   Atom       -0.080670      0.095405     -0.014735
    54   Atom       -0.014029     -0.006533      0.020562
    55   Atom        0.002013     -0.021390      0.019376
    56   Atom       -0.149611     -0.444736      0.594348
    57   Atom       -0.001453     -0.005605      0.007058
    58   Atom        0.008831      0.014483     -0.023313
    59   Atom       -0.000309      0.003614     -0.003305
    60   Atom       -0.014029     -0.006533      0.020562
    61   Atom       -0.001453     -0.005605      0.007058
    62   Atom        0.008831      0.014483     -0.023313
    63   Atom       -0.000309      0.003614     -0.003305
    64   Atom        0.002013     -0.021390      0.019376
    65   Atom        0.002676      0.030740     -0.033415
    66   Atom       -0.002403      0.011356     -0.008953
    67   Atom        0.002676      0.030740     -0.033415
    68   Atom       -0.002403      0.011356     -0.008953
    69   Atom       -0.024473     -0.010104      0.034577
    70   Atom       -0.002242      0.005174     -0.002932
    71   Atom       -0.024473     -0.010104      0.034577
    72   Atom       -0.002242      0.005174     -0.002932
    73   Atom        0.049455     -0.138449      0.088995
    74   Atom       -0.083357     -0.086650      0.170006
    75   Atom        0.196499     -0.083257     -0.113242
    76   Atom        0.019214     -0.025308      0.006094
    77   Atom       -0.083357     -0.086650      0.170006
    78   Atom        0.017093     -0.024754      0.007661
    79   Atom        0.009834     -0.004125     -0.005709
    80   Atom        0.004185     -0.002940     -0.001245
    81   Atom        0.019214     -0.025308      0.006094
    82   Atom       -0.001531     -0.004553      0.006084
    83   Atom        0.001539     -0.003029      0.001491
    84   Atom        0.001498     -0.010190      0.008693
    85   Atom       -0.000477     -0.002105      0.002582
    86   Atom       -0.001648     -0.022912      0.024560
    87   Atom       -0.001937     -0.013426      0.015363
    88   Atom        0.011145     -0.011500      0.000356
    89   Atom        0.003331     -0.001956     -0.001376
    90   Atom       -0.005748     -0.004188      0.009936
    91   Atom       -0.001723     -0.003464      0.005187
    92   Atom        0.009834     -0.004125     -0.005709
    93   Atom        0.004185     -0.002940     -0.001245
    94   Atom        0.017093     -0.024754      0.007661
    95   Atom       -0.001531     -0.004553      0.006084
    96   Atom        0.001539     -0.003029      0.001491
    97   Atom       -0.001648     -0.022912      0.024560
    98   Atom       -0.001937     -0.013426      0.015363
    99   Atom       -0.005748     -0.004188      0.009936
   100   Atom       -0.001723     -0.003464      0.005187
   101   Atom        0.001498     -0.010190      0.008693
   102   Atom       -0.000477     -0.002105      0.002582
 --------------------------------------------------------
                        XY            XZ            YZ
 --------------------------------------------------------
     1   Atom        0.000000      0.000000      0.000000
     2   Atom        0.088120      0.000000      0.000000
     3   Atom        0.000000     -0.089260      0.000000
     4   Atom       -0.088120      0.000000      0.000000
     5   Atom       -0.000000     -0.000000      0.000000
     6   Atom       -0.003247      0.000000     -0.000000
     7   Atom       -0.019396     -0.000000      0.000000
     8   Atom       -0.000000     -0.000000      0.000000
     9   Atom        0.006012      0.000000      0.000000
    10   Atom       -0.000000     -0.014342      0.000000
    11   Atom        0.000497      0.000000     -0.000000
    12   Atom        0.001092      0.000000     -0.000000
    13   Atom        0.003247      0.000000     -0.000000
    14   Atom       -0.000000      0.089260     -0.000000
    15   Atom       -0.006012      0.000000     -0.000000
    16   Atom        0.000000     -0.014320     -0.000000
    17   Atom        0.000000     -0.003848     -0.000000
    18   Atom       -0.000000     -0.003146      0.000000
    19   Atom       -0.000000      0.014342      0.000000
    20   Atom       -0.000000     -0.007630     -0.000000
    21   Atom       -0.000000     -0.004158      0.000000
    22   Atom        0.000000     -0.003147     -0.000000
    23   Atom       -0.000000     -0.001733     -0.000000
    24   Atom        0.000000      0.006713     -0.000000
    25   Atom       -0.000000      0.007666      0.000000
    26   Atom       -0.000497      0.000000      0.000000
    27   Atom       -0.001092      0.000000      0.000000
    28   Atom        0.000000     -0.000000     -0.000000
    29   Atom       -0.000000     -0.000000     -0.000000
    30   Atom       -0.000000     -0.002715     -0.000000
    31   Atom       -0.000000     -0.000137      0.000000
    32   Atom        0.019396     -0.000000      0.000000
    33   Atom       -0.008931     -0.000000      0.000000
    34   Atom       -0.009148     -0.000000     -0.000000
    35   Atom       -0.000000      0.003848      0.000000
    36   Atom       -0.000000      0.003146     -0.000000
    37   Atom        0.008931      0.000000      0.000000
    38   Atom        0.009148      0.000000      0.000000
    39   Atom       -0.000000      0.014320     -0.000000
    40   Atom        0.000685      0.000000      0.000000
    41   Atom       -0.004269     -0.000000     -0.000000
    42   Atom       -0.000685      0.000000      0.000000
    43   Atom        0.004269      0.000000      0.000000
    44   Atom       -0.000000      0.007630     -0.000000
    45   Atom       -0.000000      0.004158     -0.000000
    46   Atom        0.000000     -0.006713     -0.000000
    47   Atom        0.000000     -0.007666     -0.000000
    48   Atom       -0.000000      0.002715     -0.000000
    49   Atom       -0.000000      0.000137     -0.000000
    50   Atom       -0.000000      0.003147     -0.000000
    51   Atom       -0.000000      0.001733     -0.000000
    52   Atom        0.088120      0.000000     -0.000000
    53   Atom       -0.088120     -0.000000      0.000000
    54   Atom       -0.003247      0.000000     -0.000000
    55   Atom       -0.019396     -0.000000     -0.000000
    56   Atom       -0.000000      0.000000     -0.000000
    57   Atom        0.006012      0.000000      0.000000
    58   Atom        0.000497      0.000000      0.000000
    59   Atom        0.001092      0.000000      0.000000
    60   Atom        0.003247      0.000000      0.000000
    61   Atom       -0.006012     -0.000000      0.000000
    62   Atom       -0.000497     -0.000000     -0.000000
    63   Atom       -0.001092     -0.000000     -0.000000
    64   Atom        0.019396     -0.000000     -0.000000
    65   Atom       -0.008931      0.000000     -0.000000
    66   Atom       -0.009148     -0.000000     -0.000000
    67   Atom        0.008931     -0.000000      0.000000
    68   Atom        0.009148      0.000000      0.000000
    69   Atom        0.000685      0.000000     -0.000000
    70   Atom       -0.004269     -0.000000     -0.000000
    71   Atom       -0.000685      0.000000      0.000000
    72   Atom        0.004269     -0.000000      0.000000
    73   Atom        0.000000      0.000000     -0.000000
    74   Atom        0.000000      0.089260     -0.000000
    75   Atom       -0.000000      0.000000      0.000000
    76   Atom       -0.000000      0.014342      0.000000
    77   Atom        0.000000     -0.089260     -0.000000
    78   Atom       -0.000000      0.014320     -0.000000
    79   Atom       -0.000000      0.003848     -0.000000
    80   Atom       -0.000000      0.003146     -0.000000
    81   Atom        0.000000     -0.014342     -0.000000
    82   Atom       -0.000000      0.007630     -0.000000
    83   Atom       -0.000000      0.004158     -0.000000
    84   Atom       -0.000000      0.003147     -0.000000
    85   Atom       -0.000000      0.001733     -0.000000
    86   Atom       -0.000000     -0.006713     -0.000000
    87   Atom       -0.000000     -0.007666     -0.000000
    88   Atom       -0.000000      0.000000     -0.000000
    89   Atom       -0.000000      0.000000     -0.000000
    90   Atom       -0.000000      0.002715     -0.000000
    91   Atom       -0.000000      0.000137      0.000000
    92   Atom        0.000000     -0.003848     -0.000000
    93   Atom        0.000000     -0.003146     -0.000000
    94   Atom        0.000000     -0.014320     -0.000000
    95   Atom        0.000000     -0.007630     -0.000000
    96   Atom        0.000000     -0.004158     -0.000000
    97   Atom       -0.000000      0.006713     -0.000000
    98   Atom       -0.000000      0.007666     -0.000000
    99   Atom       -0.000000     -0.002715     -0.000000
   100   Atom       -0.000000     -0.000137     -0.000000
   101   Atom        0.000000     -0.003147     -0.000000
   102   Atom        0.000000     -0.001733     -0.000000
 --------------------------------------------------------


 ---------------------------------------------------------------------------------
              Anisotropic Spin Dipole Couplings in Principal Axis System
 ---------------------------------------------------------------------------------

       Atom             a.u.   MegaHertz   Gauss  10(-4) cm-1        Axes

              Baa    -0.1384     6.613     2.360     2.206 -0.0000  1.0000  0.0000
     1 Ni(61) Bbb     0.0495    -2.362    -0.843    -0.788  1.0000  0.0000 -0.0000
              Bcc     0.0890    -4.251    -1.517    -1.418  0.0000  0.0000  1.0000
 
              Baa    -0.1172    -4.520    -1.613    -1.508  0.9238 -0.3829 -0.0000
     2 N(14)  Bbb    -0.0147    -0.568    -0.203    -0.190 -0.0000 -0.0000  1.0000
              Bcc     0.1319     5.088     1.816     1.697  0.3829  0.9238  0.0000
 
              Baa    -0.1116    -4.306    -1.536    -1.436  0.9533 -0.0000  0.3021
     3 N(14)  Bbb    -0.0866    -3.342    -1.192    -1.115  0.0000  1.0000  0.0000
              Bcc     0.1983     7.648     2.729     2.551 -0.3021 -0.0000  0.9533
 
              Baa    -0.1172    -4.520    -1.613    -1.508  0.9238  0.3829 -0.0000
     4 N(14)  Bbb    -0.0147    -0.568    -0.203    -0.190  0.0000 -0.0000  1.0000
              Bcc     0.1319     5.088     1.816     1.697 -0.3829  0.9238  0.0000
 
              Baa    -0.1132    -4.367    -1.558    -1.457  0.0000 -0.0000  1.0000
     5 N(14)  Bbb    -0.0833    -3.211    -1.146    -1.071 -0.0000  1.0000  0.0000
              Bcc     0.1965     7.579     2.704     2.528  1.0000 -0.0000 -0.0000
 
              Baa    -0.0152    -2.045    -0.730    -0.682  0.9370  0.3494 -0.0000
     6 C(13)  Bbb    -0.0053    -0.714    -0.255    -0.238 -0.3494  0.9370  0.0000
              Bcc     0.0206     2.759     0.985     0.920  0.0000 -0.0000  1.0000
 
              Baa    -0.0323    -4.340    -1.549    -1.448  0.4916  0.8708  0.0000
     7 C(13)  Bbb     0.0130     1.740     0.621     0.580  0.8708 -0.4916  0.0000
              Bcc     0.0194     2.600     0.928     0.867 -0.0000  0.0000  1.0000
 
              Baa    -0.4447   -17.152    -6.120    -5.721 -0.0000  1.0000 -0.0000
     8 N(14)  Bbb    -0.1496    -5.770    -2.059    -1.925  1.0000 -0.0000  0.0000
              Bcc     0.5943    22.923     8.179     7.646  0.0000  0.0000  1.0000
 
              Baa    -0.0099    -1.327    -0.474    -0.443 -0.5804  0.8144 -0.0000
     9 C(13)  Bbb     0.0028     0.380     0.136     0.127  0.8144  0.5804 -0.0000
              Bcc     0.0071     0.947     0.338     0.316  0.0000  0.0000  1.0000
 
              Baa    -0.0253    -3.396    -1.212    -1.133  0.0000  1.0000 -0.0000
    10 C(13)  Bbb    -0.0031    -0.418    -0.149    -0.140  0.5404 -0.0000  0.8414
              Bcc     0.0284     3.814     1.361     1.272  0.8414 -0.0000 -0.5404
 
              Baa    -0.0233    -3.128    -1.116    -1.044  0.0000  0.0000  1.0000
    11 C(13)  Bbb     0.0088     1.179     0.421     0.393  0.9962 -0.0869  0.0000
              Bcc     0.0145     1.949     0.696     0.650  0.0869  0.9962 -0.0000
 
              Baa    -0.0033    -1.763    -0.629    -0.588  0.0000  0.0000  1.0000
    12 H(1)   Bbb    -0.0006    -0.316    -0.113    -0.105  0.9679 -0.2513  0.0000
              Bcc     0.0039     2.079     0.742     0.694  0.2513  0.9679 -0.0000
 
              Baa    -0.0152    -2.045    -0.730    -0.682  0.9370 -0.3494 -0.0000
    13 C(13)  Bbb    -0.0053    -0.714    -0.255    -0.238  0.3494  0.9370  0.0000
              Bcc     0.0206     2.759     0.985     0.920  0.0000 -0.0000  1.0000
 
              Baa    -0.1116    -4.306    -1.536    -1.436  0.9533  0.0000 -0.3021
    14 N(14)  Bbb    -0.0866    -3.342    -1.192    -1.115 -0.0000  1.0000  0.0000
              Bcc     0.1983     7.648     2.729     2.551  0.3021 -0.0000  0.9533
 
              Baa    -0.0099    -1.327    -0.474    -0.443  0.5804  0.8144  0.0000
    15 C(13)  Bbb     0.0028     0.380     0.136     0.127  0.8144 -0.5804 -0.0000
              Bcc     0.0071     0.947     0.338     0.316  0.0000 -0.0000  1.0000
 
              Baa    -0.0248    -3.322    -1.185    -1.108 -0.0000  1.0000  0.0000
    16 C(13)  Bbb    -0.0027    -0.362    -0.129    -0.121  0.5862 -0.0000  0.8102
              Bcc     0.0275     3.684     1.315     1.229  0.8102  0.0000 -0.5862
 
              Baa    -0.0066    -0.887    -0.316    -0.296  0.2279  0.0000  0.9737
    17 C(13)  Bbb    -0.0041    -0.554    -0.198    -0.185 -0.0000  1.0000 -0.0000
              Bcc     0.0107     1.440     0.514     0.480  0.9737  0.0000 -0.2279
 
              Baa    -0.0029    -1.569    -0.560    -0.523 -0.0000  1.0000 -0.0000
    18 H(1)   Bbb    -0.0027    -1.433    -0.511    -0.478  0.4163  0.0000  0.9092
              Bcc     0.0056     3.002     1.071     1.001  0.9092  0.0000 -0.4163
 
              Baa    -0.0253    -3.396    -1.212    -1.133  0.0000  1.0000 -0.0000
    19 C(13)  Bbb    -0.0031    -0.418    -0.149    -0.140 -0.5404  0.0000  0.8414
              Bcc     0.0284     3.814     1.361     1.272  0.8414  0.0000  0.5404
 
              Baa    -0.0063    -0.839    -0.299    -0.280  0.8504  0.0000  0.5261
    20 C(13)  Bbb    -0.0046    -0.611    -0.218    -0.204 -0.0000  1.0000 -0.0000
              Bcc     0.0108     1.450     0.517     0.484 -0.5261  0.0000  0.8504
 
              Baa    -0.0030    -1.616    -0.577    -0.539  0.0000  1.0000  0.0000
    21 H(1)   Bbb    -0.0026    -1.410    -0.503    -0.470  0.7051 -0.0000  0.7091
              Bcc     0.0057     3.027     1.080     1.010  0.7091 -0.0000 -0.7051
 
              Baa    -0.0102    -1.367    -0.488    -0.456  0.0000  1.0000  0.0000
    22 C(13)  Bbb     0.0003     0.042     0.015     0.014  0.9361  0.0000  0.3517
              Bcc     0.0099     1.325     0.473     0.442 -0.3517 -0.0000  0.9361
 
              Baa    -0.0021    -1.123    -0.401    -0.375 -0.0000  1.0000 -0.0000
    23 H(1)   Bbb    -0.0013    -0.672    -0.240    -0.224  0.9115  0.0000  0.4113
              Bcc     0.0034     1.795     0.640     0.599 -0.4113  0.0000  0.9115
 
              Baa    -0.0229    -3.075    -1.097    -1.026 -0.0000  1.0000  0.0000
    24 C(13)  Bbb    -0.0033    -0.438    -0.156    -0.146  0.9721  0.0000 -0.2345
              Bcc     0.0262     3.513     1.254     1.172  0.2345 -0.0000  0.9721
 
              Baa    -0.0134    -7.163    -2.556    -2.389  0.0000  1.0000 -0.0000
    25 H(1)   Bbb    -0.0048    -2.585    -0.922    -0.862  0.9350 -0.0000 -0.3547
              Bcc     0.0183     9.749     3.479     3.252  0.3547 -0.0000  0.9350
 
              Baa    -0.0233    -3.128    -1.116    -1.044 -0.0000 -0.0000  1.0000
    26 C(13)  Bbb     0.0088     1.179     0.421     0.393  0.9962  0.0869  0.0000
              Bcc     0.0145     1.949     0.696     0.650 -0.0869  0.9962  0.0000
 
              Baa    -0.0033    -1.763    -0.629    -0.588 -0.0000 -0.0000  1.0000
    27 H(1)   Bbb    -0.0006    -0.316    -0.113    -0.105  0.9679  0.2513  0.0000
              Bcc     0.0039     2.079     0.742     0.694 -0.2513  0.9679  0.0000
 
              Baa    -0.0115    -1.543    -0.551    -0.515 -0.0000  1.0000  0.0000
    28 C(13)  Bbb     0.0004     0.048     0.017     0.016  0.0000 -0.0000  1.0000
              Bcc     0.0111     1.496     0.534     0.499  1.0000  0.0000 -0.0000
 
              Baa    -0.0020    -1.043    -0.372    -0.348  0.0000  1.0000  0.0000
    29 H(1)   Bbb    -0.0014    -0.734    -0.262    -0.245  0.0000 -0.0000  1.0000
              Bcc     0.0033     1.777     0.634     0.593  1.0000 -0.0000 -0.0000
 
              Baa    -0.0062    -0.833    -0.297    -0.278  0.9861  0.0000  0.1659
    30 C(13)  Bbb    -0.0042    -0.562    -0.201    -0.187 -0.0000  1.0000 -0.0000
              Bcc     0.0104     1.395     0.498     0.465 -0.1659 -0.0000  0.9861
 
              Baa    -0.0035    -1.848    -0.659    -0.616  0.0000  1.0000 -0.0000
    31 H(1)   Bbb    -0.0017    -0.921    -0.329    -0.307  0.9998 -0.0000  0.0198
              Bcc     0.0052     2.769     0.988     0.924 -0.0198  0.0000  0.9998
 
              Baa    -0.0323    -4.340    -1.549    -1.448 -0.4916  0.8708 -0.0000
    32 C(13)  Bbb     0.0130     1.740     0.621     0.580  0.8708  0.4916  0.0000
              Bcc     0.0194     2.600     0.928     0.867 -0.0000 -0.0000  1.0000
 
              Baa    -0.0334    -4.484    -1.600    -1.496  0.0000 -0.0000  1.0000
    33 C(13)  Bbb     0.0001     0.010     0.004     0.003  0.9601  0.2796 -0.0000
              Bcc     0.0333     4.474     1.596     1.492 -0.2796  0.9601  0.0000
 
              Baa    -0.0090    -4.777    -1.705    -1.593  0.0000  0.0000  1.0000
    34 H(1)   Bbb    -0.0070    -3.718    -1.327    -1.240  0.8947  0.4466 -0.0000
              Bcc     0.0159     8.495     3.031     2.834 -0.4466  0.8947 -0.0000
 
              Baa    -0.0066    -0.887    -0.316    -0.296 -0.2279 -0.0000  0.9737
    35 C(13)  Bbb    -0.0041    -0.554    -0.198    -0.185 -0.0000  1.0000  0.0000
              Bcc     0.0107     1.440     0.514     0.480  0.9737  0.0000  0.2279
 
              Baa    -0.0029    -1.569    -0.560    -0.523  0.0000  1.0000  0.0000
    36 H(1)   Bbb    -0.0027    -1.433    -0.511    -0.478 -0.4163  0.0000  0.9092
              Bcc     0.0056     3.002     1.071     1.001  0.9092 -0.0000  0.4163
 
              Baa    -0.0334    -4.484    -1.600    -1.496 -0.0000 -0.0000  1.0000
    37 C(13)  Bbb     0.0001     0.010     0.004     0.003  0.9601 -0.2796 -0.0000
              Bcc     0.0333     4.474     1.596     1.492  0.2796  0.9601  0.0000
 
              Baa    -0.0090    -4.777    -1.705    -1.593  0.0000 -0.0000  1.0000
    38 H(1)   Bbb    -0.0070    -3.718    -1.327    -1.240  0.8947 -0.4466 -0.0000
              Bcc     0.0159     8.495     3.031     2.834  0.4466  0.8947  0.0000
 
              Baa    -0.0248    -3.322    -1.185    -1.108  0.0000  1.0000 -0.0000
    39 C(13)  Bbb    -0.0027    -0.362    -0.129    -0.121 -0.5862  0.0000  0.8102
              Bcc     0.0275     3.684     1.315     1.229  0.8102 -0.0000  0.5862
 
              Baa    -0.0245    -3.288    -1.173    -1.097  0.9989 -0.0475 -0.0000
    40 C(13)  Bbb    -0.0101    -1.352    -0.482    -0.451  0.0475  0.9989 -0.0000
              Bcc     0.0346     4.640     1.656     1.548  0.0000  0.0000  1.0000
 
              Baa    -0.0042    -2.235    -0.797    -0.745  0.9099  0.4149  0.0000
    41 H(1)   Bbb    -0.0029    -1.564    -0.558    -0.522  0.0000  0.0000  1.0000
              Bcc     0.0071     3.799     1.356     1.267 -0.4149  0.9099 -0.0000
 
              Baa    -0.0245    -3.288    -1.173    -1.097  0.9989  0.0475 -0.0000
    42 C(13)  Bbb    -0.0101    -1.352    -0.482    -0.451 -0.0475  0.9989 -0.0000
              Bcc     0.0346     4.640     1.656     1.548  0.0000  0.0000  1.0000
 
              Baa    -0.0042    -2.235    -0.797    -0.745  0.9099 -0.4149  0.0000
    43 H(1)   Bbb    -0.0029    -1.564    -0.558    -0.522 -0.0000  0.0000  1.0000
              Bcc     0.0071     3.799     1.356     1.267  0.4149  0.9099  0.0000
 
              Baa    -0.0063    -0.839    -0.299    -0.280  0.8504  0.0000 -0.5261
    44 C(13)  Bbb    -0.0046    -0.611    -0.218    -0.204 -0.0000  1.0000  0.0000
              Bcc     0.0108     1.450     0.517     0.484  0.5261 -0.0000  0.8504
 
              Baa    -0.0030    -1.616    -0.577    -0.539  0.0000  1.0000  0.0000
    45 H(1)   Bbb    -0.0026    -1.410    -0.503    -0.470 -0.7051  0.0000  0.7091
              Bcc     0.0057     3.027     1.080     1.010  0.7091 -0.0000  0.7051
 
              Baa    -0.0229    -3.075    -1.097    -1.026 -0.0000  1.0000  0.0000
    46 C(13)  Bbb    -0.0033    -0.438    -0.156    -0.146  0.9721 -0.0000  0.2345
              Bcc     0.0262     3.513     1.254     1.172 -0.2345 -0.0000  0.9721
 
              Baa    -0.0134    -7.163    -2.556    -2.389 -0.0000  1.0000  0.0000
    47 H(1)   Bbb    -0.0048    -2.585    -0.922    -0.862  0.9350 -0.0000  0.3547
              Bcc     0.0183     9.749     3.479     3.252 -0.3547 -0.0000  0.9350
 
              Baa    -0.0062    -0.833    -0.297    -0.278  0.9861  0.0000 -0.1659
    48 C(13)  Bbb    -0.0042    -0.562    -0.201    -0.187 -0.0000  1.0000  0.0000
              Bcc     0.0104     1.395     0.498     0.465  0.1659 -0.0000  0.9861
 
              Baa    -0.0035    -1.848    -0.659    -0.616  0.0000  1.0000  0.0000
    49 H(1)   Bbb    -0.0017    -0.921    -0.329    -0.307  0.9998 -0.0000 -0.0198
              Bcc     0.0052     2.769     0.988     0.924  0.0198 -0.0000  0.9998
 
              Baa    -0.0102    -1.367    -0.488    -0.456  0.0000  1.0000  0.0000
    50 C(13)  Bbb     0.0003     0.042     0.015     0.014  0.9361 -0.0000 -0.3517
              Bcc     0.0099     1.325     0.473     0.442  0.3517 -0.0000  0.9361
 
              Baa    -0.0021    -1.123    -0.401    -0.375  0.0000  1.0000  0.0000
    51 H(1)   Bbb    -0.0013    -0.672    -0.240    -0.224  0.9115 -0.0000 -0.4113
              Bcc     0.0034     1.795     0.640     0.599  0.4113 -0.0000  0.9115
 
              Baa    -0.1172    -4.520    -1.613    -1.508  0.9238 -0.3829 -0.0000
    52 N(14)  Bbb    -0.0147    -0.568    -0.203    -0.190  0.0000 -0.0000  1.0000
              Bcc     0.1319     5.088     1.816     1.697  0.3829  0.9238 -0.0000
 
              Baa    -0.1172    -4.520    -1.613    -1.508  0.9238  0.3829 -0.0000
    53 N(14)  Bbb    -0.0147    -0.568    -0.203    -0.190  0.0000 -0.0000  1.0000
              Bcc     0.1319     5.088     1.816     1.697 -0.3829  0.9238  0.0000
 
              Baa    -0.0152    -2.045    -0.730    -0.682  0.9370  0.3494  0.0000
    54 C(13)  Bbb    -0.0053    -0.714    -0.255    -0.238 -0.3494  0.9370 -0.0000
              Bcc     0.0206     2.759     0.985     0.920  0.0000  0.0000  1.0000
 
              Baa    -0.0323    -4.340    -1.549    -1.448  0.4916  0.8708  0.0000
    55 C(13)  Bbb     0.0130     1.740     0.621     0.580  0.8708 -0.4916  0.0000
              Bcc     0.0194     2.600     0.928     0.867 -0.0000  0.0000  1.0000
 
              Baa    -0.4447   -17.152    -6.120    -5.721 -0.0000  1.0000 -0.0000
    56 N(14)  Bbb    -0.1496    -5.770    -2.059    -1.925  1.0000  0.0000  0.0000
              Bcc     0.5943    22.923     8.179     7.646  0.0000  0.0000  1.0000
 
              Baa    -0.0099    -1.327    -0.474    -0.443 -0.5804  0.8144 -0.0000
    57 C(13)  Bbb     0.0028     0.380     0.136     0.127  0.8144  0.5804 -0.0000
              Bcc     0.0071     0.947     0.338     0.316  0.0000  0.0000  1.0000
 
              Baa    -0.0233    -3.128    -1.116    -1.044  0.0000  0.0000  1.0000
    58 C(13)  Bbb     0.0088     1.179     0.421     0.393  0.9962 -0.0869 -0.0000
              Bcc     0.0145     1.949     0.696     0.650  0.0869  0.9962 -0.0000
 
              Baa    -0.0033    -1.763    -0.629    -0.588  0.0000  0.0000  1.0000
    59 H(1)   Bbb    -0.0006    -0.316    -0.113    -0.105  0.9679 -0.2513  0.0000
              Bcc     0.0039     2.079     0.742     0.694  0.2513  0.9679 -0.0000
 
              Baa    -0.0152    -2.045    -0.730    -0.682  0.9370 -0.3494 -0.0000
    60 C(13)  Bbb    -0.0053    -0.714    -0.255    -0.238  0.3494  0.9370 -0.0000
              Bcc     0.0206     2.759     0.985     0.920  0.0000  0.0000  1.0000
 
              Baa    -0.0099    -1.327    -0.474    -0.443  0.5804  0.8144 -0.0000
    61 C(13)  Bbb     0.0028     0.380     0.136     0.127  0.8144 -0.5804  0.0000
              Bcc     0.0071     0.947     0.338     0.316 -0.0000  0.0000  1.0000
 
              Baa    -0.0233    -3.128    -1.116    -1.044  0.0000  0.0000  1.0000
    62 C(13)  Bbb     0.0088     1.179     0.421     0.393  0.9962  0.0869 -0.0000
              Bcc     0.0145     1.949     0.696     0.650 -0.0869  0.9962 -0.0000
 
              Baa    -0.0033    -1.763    -0.629    -0.588  0.0000  0.0000  1.0000
    63 H(1)   Bbb    -0.0006    -0.316    -0.113    -0.105  0.9679  0.2513 -0.0000
              Bcc     0.0039     2.079     0.742     0.694 -0.2513  0.9679 -0.0000
 
              Baa    -0.0323    -4.340    -1.549    -1.448 -0.4916  0.8708  0.0000
    64 C(13)  Bbb     0.0130     1.740     0.621     0.580  0.8708  0.4916  0.0000
              Bcc     0.0194     2.600     0.928     0.867 -0.0000 -0.0000  1.0000
 
              Baa    -0.0334    -4.484    -1.600    -1.496  0.0000  0.0000  1.0000
    65 C(13)  Bbb     0.0001     0.010     0.004     0.003  0.9601  0.2796 -0.0000
              Bcc     0.0333     4.474     1.596     1.492 -0.2796  0.9601 -0.0000
 
              Baa    -0.0090    -4.777    -1.705    -1.593  0.0000  0.0000  1.0000
    66 H(1)   Bbb    -0.0070    -3.718    -1.327    -1.240  0.8947  0.4466 -0.0000
              Bcc     0.0159     8.495     3.031     2.834 -0.4466  0.8947 -0.0000
 
              Baa    -0.0334    -4.484    -1.600    -1.496  0.0000 -0.0000  1.0000
    67 C(13)  Bbb     0.0001     0.010     0.004     0.003  0.9601 -0.2796 -0.0000
              Bcc     0.0333     4.474     1.596     1.492  0.2796  0.9601  0.0000
 
              Baa    -0.0090    -4.777    -1.705    -1.593 -0.0000 -0.0000  1.0000
    68 H(1)   Bbb    -0.0070    -3.718    -1.327    -1.240  0.8947 -0.4466  0.0000
              Bcc     0.0159     8.495     3.031     2.834  0.4466  0.8947  0.0000
 
              Baa    -0.0245    -3.288    -1.173    -1.097  0.9989 -0.0475  0.0000
    69 C(13)  Bbb    -0.0101    -1.352    -0.482    -0.451  0.0475  0.9989  0.0000
              Bcc     0.0346     4.640     1.656     1.548  0.0000  0.0000  1.0000
 
              Baa    -0.0042    -2.235    -0.797    -0.745  0.9099  0.4149  0.0000
    70 H(1)   Bbb    -0.0029    -1.564    -0.558    -0.522 -0.0000 -0.0000  1.0000
              Bcc     0.0071     3.799     1.356     1.267 -0.4149  0.9099 -0.0000
 
              Baa    -0.0245    -3.288    -1.173    -1.097  0.9989  0.0475 -0.0000
    71 C(13)  Bbb    -0.0101    -1.352    -0.482    -0.451 -0.0475  0.9989 -0.0000
              Bcc     0.0346     4.640     1.656     1.548  0.0000  0.0000  1.0000
 
              Baa    -0.0042    -2.235    -0.797    -0.745  0.9099 -0.4149  0.0000
    72 H(1)   Bbb    -0.0029    -1.564    -0.558    -0.522 -0.0000  0.0000  1.0000
              Bcc     0.0071     3.799     1.356     1.267  0.4149  0.9099  0.0000
 
              Baa    -0.1384     6.613     2.360     2.206 -0.0000  1.0000  0.0000
    73 Ni(61) Bbb     0.0495    -2.362    -0.843    -0.788  1.0000  0.0000 -0.0000
              Bcc     0.0890    -4.251    -1.517    -1.418  0.0000 -0.0000  1.0000
 
              Baa    -0.1116    -4.306    -1.536    -1.436  0.9533 -0.0000 -0.3021
    74 N(14)  Bbb    -0.0866    -3.342    -1.192    -1.115  0.0000  1.0000  0.0000
              Bcc     0.1983     7.648     2.729     2.551  0.3021 -0.0000  0.9533
 
              Baa    -0.1132    -4.367    -1.558    -1.457 -0.0000 -0.0000  1.0000
    75 N(14)  Bbb    -0.0833    -3.211    -1.146    -1.071  0.0000  1.0000  0.0000
              Bcc     0.1965     7.579     2.704     2.528  1.0000 -0.0000  0.0000
 
              Baa    -0.0253    -3.396    -1.212    -1.133  0.0000  1.0000 -0.0000
    76 C(13)  Bbb    -0.0031    -0.418    -0.149    -0.140 -0.5404  0.0000  0.8414
              Bcc     0.0284     3.814     1.361     1.272  0.8414  0.0000  0.5404
 
              Baa    -0.1116    -4.306    -1.536    -1.436  0.9533 -0.0000  0.3021
    77 N(14)  Bbb    -0.0866    -3.342    -1.192    -1.115 -0.0000  1.0000  0.0000
              Bcc     0.1983     7.648     2.729     2.551 -0.3021 -0.0000  0.9533
 
              Baa    -0.0248    -3.322    -1.185    -1.108  0.0000  1.0000  0.0000
    78 C(13)  Bbb    -0.0027    -0.362    -0.129    -0.121 -0.5862 -0.0000  0.8102
              Bcc     0.0275     3.684     1.315     1.229  0.8102  0.0000  0.5862
 
              Baa    -0.0066    -0.887    -0.316    -0.296 -0.2279  0.0000  0.9737
    79 C(13)  Bbb    -0.0041    -0.554    -0.198    -0.185  0.0000  1.0000 -0.0000
              Bcc     0.0107     1.440     0.514     0.480  0.9737 -0.0000  0.2279
 
              Baa    -0.0029    -1.569    -0.560    -0.523  0.0000  1.0000  0.0000
    80 H(1)   Bbb    -0.0027    -1.433    -0.511    -0.478 -0.4163  0.0000  0.9092
              Bcc     0.0056     3.002     1.071     1.001  0.9092 -0.0000  0.4163
 
              Baa    -0.0253    -3.396    -1.212    -1.133 -0.0000  1.0000  0.0000
    81 C(13)  Bbb    -0.0031    -0.418    -0.149    -0.140  0.5404 -0.0000  0.8414
              Bcc     0.0284     3.814     1.361     1.272  0.8414  0.0000 -0.5404
 
              Baa    -0.0063    -0.839    -0.299    -0.280  0.8504  0.0000 -0.5261
    82 C(13)  Bbb    -0.0046    -0.611    -0.218    -0.204  0.0000  1.0000  0.0000
              Bcc     0.0108     1.450     0.517     0.484  0.5261 -0.0000  0.8504
 
              Baa    -0.0030    -1.616    -0.577    -0.539 -0.0000  1.0000  0.0000
    83 H(1)   Bbb    -0.0026    -1.410    -0.503    -0.470 -0.7051 -0.0000  0.7091
              Bcc     0.0057     3.027     1.080     1.010  0.7091 -0.0000  0.7051
 
              Baa    -0.0102    -1.367    -0.488    -0.456  0.0000  1.0000  0.0000
    84 C(13)  Bbb     0.0003     0.042     0.015     0.014  0.9361 -0.0000 -0.3517
              Bcc     0.0099     1.325     0.473     0.442  0.3517 -0.0000  0.9361
 
              Baa    -0.0021    -1.123    -0.401    -0.375  0.0000  1.0000  0.0000
    85 H(1)   Bbb    -0.0013    -0.672    -0.240    -0.224  0.9115 -0.0000 -0.4113
              Bcc     0.0034     1.795     0.640     0.599  0.4113 -0.0000  0.9115
 
              Baa    -0.0229    -3.075    -1.097    -1.026  0.0000  1.0000  0.0000
    86 C(13)  Bbb    -0.0033    -0.438    -0.156    -0.146  0.9721 -0.0000  0.2345
              Bcc     0.0262     3.513     1.254     1.172 -0.2345 -0.0000  0.9721
 
              Baa    -0.0134    -7.163    -2.556    -2.389  0.0000  1.0000  0.0000
    87 H(1)   Bbb    -0.0048    -2.585    -0.922    -0.862  0.9350 -0.0000  0.3547
              Bcc     0.0183     9.749     3.479     3.252 -0.3547 -0.0000  0.9350
 
              Baa    -0.0115    -1.543    -0.551    -0.515  0.0000  1.0000  0.0000
    88 C(13)  Bbb     0.0004     0.048     0.017     0.016 -0.0000 -0.0000  1.0000
              Bcc     0.0111     1.496     0.534     0.499  1.0000 -0.0000  0.0000
 
              Baa    -0.0020    -1.043    -0.372    -0.348  0.0000  1.0000  0.0000
    89 H(1)   Bbb    -0.0014    -0.734    -0.262    -0.245 -0.0000 -0.0000  1.0000
              Bcc     0.0033     1.777     0.634     0.593  1.0000 -0.0000  0.0000
 
              Baa    -0.0062    -0.833    -0.297    -0.278  0.9861 -0.0000 -0.1659
    90 C(13)  Bbb    -0.0042    -0.562    -0.201    -0.187  0.0000  1.0000  0.0000
              Bcc     0.0104     1.395     0.498     0.465  0.1659 -0.0000  0.9861
 
              Baa    -0.0035    -1.848    -0.659    -0.616  0.0000  1.0000 -0.0000
    91 H(1)   Bbb    -0.0017    -0.921    -0.329    -0.307  0.9998 -0.0000 -0.0198
              Bcc     0.0052     2.769     0.988     0.924  0.0198  0.0000  0.9998
 
              Baa    -0.0066    -0.887    -0.316    -0.296  0.2279  0.0000  0.9737
    92 C(13)  Bbb    -0.0041    -0.554    -0.198    -0.185 -0.0000  1.0000 -0.0000
              Bcc     0.0107     1.440     0.514     0.480  0.9737  0.0000 -0.2279
 
              Baa    -0.0029    -1.569    -0.560    -0.523 -0.0000  1.0000 -0.0000
    93 H(1)   Bbb    -0.0027    -1.433    -0.511    -0.478  0.4163  0.0000  0.9092
              Bcc     0.0056     3.002     1.071     1.001  0.9092  0.0000 -0.4163
 
              Baa    -0.0248    -3.322    -1.185    -1.108  0.0000  1.0000  0.0000
    94 C(13)  Bbb    -0.0027    -0.362    -0.129    -0.121  0.5862 -0.0000  0.8102
              Bcc     0.0275     3.684     1.315     1.229  0.8102  0.0000 -0.5862
 
              Baa    -0.0063    -0.839    -0.299    -0.280  0.8504  0.0000  0.5261
    95 C(13)  Bbb    -0.0046    -0.611    -0.218    -0.204 -0.0000  1.0000 -0.0000
              Bcc     0.0108     1.450     0.517     0.484 -0.5261 -0.0000  0.8504
 
              Baa    -0.0030    -1.616    -0.577    -0.539 -0.0000  1.0000 -0.0000
    96 H(1)   Bbb    -0.0026    -1.410    -0.503    -0.470  0.7051  0.0000  0.7091
              Bcc     0.0057     3.027     1.080     1.010  0.7091  0.0000 -0.7051
 
              Baa    -0.0229    -3.075    -1.097    -1.026  0.0000  1.0000  0.0000
    97 C(13)  Bbb    -0.0033    -0.438    -0.156    -0.146  0.9721 -0.0000 -0.2345
              Bcc     0.0262     3.513     1.254     1.172  0.2345 -0.0000  0.9721
 
              Baa    -0.0134    -7.163    -2.556    -2.389  0.0000  1.0000  0.0000
    98 H(1)   Bbb    -0.0048    -2.585    -0.922    -0.862  0.9350 -0.0000 -0.3547
              Bcc     0.0183     9.749     3.479     3.252  0.3547 -0.0000  0.9350
 
              Baa    -0.0062    -0.833    -0.297    -0.278  0.9861  0.0000  0.1659
    99 C(13)  Bbb    -0.0042    -0.562    -0.201    -0.187 -0.0000  1.0000  0.0000
              Bcc     0.0104     1.395     0.498     0.465 -0.1659 -0.0000  0.9861
 
              Baa    -0.0035    -1.848    -0.659    -0.616 -0.0000  1.0000  0.0000
   100 H(1)   Bbb    -0.0017    -0.921    -0.329    -0.307  0.9998  0.0000  0.0198
              Bcc     0.0052     2.769     0.988     0.924 -0.0198 -0.0000  0.9998
 
              Baa    -0.0102    -1.367    -0.488    -0.456 -0.0000  1.0000  0.0000
   101 C(13)  Bbb     0.0003     0.042     0.015     0.014  0.9361  0.0000  0.3517
              Bcc     0.0099     1.325     0.473     0.442 -0.3517 -0.0000  0.9361
 
              Baa    -0.0021    -1.123    -0.401    -0.375  0.0000  1.0000  0.0000
   102 H(1)   Bbb    -0.0013    -0.672    -0.240    -0.224  0.9115 -0.0000  0.4113
              Bcc     0.0034     1.795     0.640     0.599 -0.4113 -0.0000  0.9115
 

 ---------------------------------------------------------------------------------

 No NMR shielding tensors so no spin-rotation constants.
 Leave Link  601 at Fri Aug 30 17:38:55 2024, MaxMem= 11953766400 cpu:             318.6 elap:              13.4
 (Enter /opt/gaussian16/g16/l602.exe)

 **********************************************************************

            Electrostatic Properties Using The SCF Density

 **********************************************************************


 Warning!  Using spin rather than total density!

 --- Only the electronic contributions will be computed ---
       Atomic Center    1 is at  -3.340069  0.000000 -0.000000
       Atomic Center    2 is at  -2.779297  2.256317  0.000000
       Atomic Center    3 is at  -3.748356  0.000000  2.051909
       Atomic Center    4 is at  -2.779297 -2.256317 -0.000000
       Atomic Center    5 is at  -5.330239  0.000000 -0.000000
       Atomic Center    6 is at   0.732100  3.619438  0.000000
       Atomic Center    7 is at  -0.692120 -1.158664  0.000000
       Atomic Center    8 is at  -1.390034  0.000000 -0.000000
       Atomic Center    9 is at  -1.423763  2.382066  0.000000
       Atomic Center   10 is at  -5.972433  0.000000  1.173960
       Atomic Center   11 is at  -1.537504 -4.771003 -0.000000
       Atomic Center   12 is at  -1.092704 -5.757434  0.000000
       Atomic Center   13 is at  -0.732100  3.619438 -0.000000
       Atomic Center   14 is at  -3.748356  0.000000 -2.051909
       Atomic Center   15 is at  -1.423763 -2.382066 -0.000000
       Atomic Center   16 is at  -5.067929  0.000000  2.349483
       Atomic Center   17 is at  -7.365438  0.000000  1.209125
       Atomic Center   18 is at  -7.903253  0.000000  2.146133
       Atomic Center   19 is at  -5.972433  0.000000 -1.173960
       Atomic Center   20 is at  -5.511927  0.000000  3.667659
       Atomic Center   21 is at  -6.568722  0.000000  3.893946
       Atomic Center   22 is at  -4.572599  0.000000  4.694419
       Atomic Center   23 is at  -4.897596  0.000000  5.726901
       Atomic Center   24 is at  -2.850243  0.000000  3.037785
       Atomic Center   25 is at  -1.809819  0.000000  2.737309
       Atomic Center   26 is at  -1.537504  4.771003  0.000000
       Atomic Center   27 is at  -1.092704  5.757434  0.000000
       Atomic Center   28 is at  -8.055792  0.000000 -0.000000
       Atomic Center   29 is at  -9.138059  0.000000 -0.000000
       Atomic Center   30 is at  -3.218894  0.000000  4.378446
       Atomic Center   31 is at  -2.459377  0.000000  5.148298
       Atomic Center   32 is at  -0.692120  1.158664  0.000000
       Atomic Center   33 is at  -3.500910  3.369098  0.000000
       Atomic Center   34 is at  -4.578273  3.250200  0.000000
       Atomic Center   35 is at  -7.365438  0.000000 -1.209125
       Atomic Center   36 is at  -7.903253  0.000000 -2.146133
       Atomic Center   37 is at  -3.500910 -3.369098 -0.000000
       Atomic Center   38 is at  -4.578273 -3.250200 -0.000000
       Atomic Center   39 is at  -5.067929  0.000000 -2.349483
       Atomic Center   40 is at  -2.916546  4.644800  0.000000
       Atomic Center   41 is at  -3.550784  5.520844  0.000000
       Atomic Center   42 is at  -2.916546 -4.644800 -0.000000
       Atomic Center   43 is at  -3.550784 -5.520844 -0.000000
       Atomic Center   44 is at  -5.511927  0.000000 -3.667659
       Atomic Center   45 is at  -6.568722  0.000000 -3.893946
       Atomic Center   46 is at  -2.850243  0.000000 -3.037785
       Atomic Center   47 is at  -1.809819  0.000000 -2.737309
       Atomic Center   48 is at  -3.218894  0.000000 -4.378446
       Atomic Center   49 is at  -2.459377  0.000000 -5.148298
       Atomic Center   50 is at  -4.572599  0.000000 -4.694419
       Atomic Center   51 is at  -4.897596  0.000000 -5.726901
       Atomic Center   52 is at   2.779297 -2.256317  0.000000
       Atomic Center   53 is at   2.779297  2.256317  0.000000
       Atomic Center   54 is at  -0.732100 -3.619438  0.000000
       Atomic Center   55 is at   0.692120  1.158664  0.000000
       Atomic Center   56 is at   1.390034 -0.000000  0.000000
       Atomic Center   57 is at   1.423763 -2.382066 -0.000000
       Atomic Center   58 is at   1.537504  4.771003  0.000000
       Atomic Center   59 is at   1.092704  5.757434  0.000000
       Atomic Center   60 is at   0.732100 -3.619438 -0.000000
       Atomic Center   61 is at   1.423763  2.382066  0.000000
       Atomic Center   62 is at   1.537504 -4.771003  0.000000
       Atomic Center   63 is at   1.092704 -5.757434  0.000000
       Atomic Center   64 is at   0.692120 -1.158664  0.000000
       Atomic Center   65 is at   3.500910 -3.369098 -0.000000
       Atomic Center   66 is at   4.578273 -3.250200  0.000000
       Atomic Center   67 is at   3.500910  3.369098  0.000000
       Atomic Center   68 is at   4.578273  3.250200  0.000000
       Atomic Center   69 is at   2.916546 -4.644800  0.000000
       Atomic Center   70 is at   3.550784 -5.520844  0.000000
       Atomic Center   71 is at   2.916546  4.644800  0.000000
       Atomic Center   72 is at   3.550784  5.520844  0.000000
       Atomic Center   73 is at   3.340069 -0.000000  0.000000
       Atomic Center   74 is at   3.748356 -0.000000  2.051909
       Atomic Center   75 is at   5.330239 -0.000000 -0.000000
       Atomic Center   76 is at   5.972433 -0.000000  1.173960
       Atomic Center   77 is at   3.748356  0.000000 -2.051909
       Atomic Center   78 is at   5.067929 -0.000000  2.349483
       Atomic Center   79 is at   7.365438 -0.000000  1.209125
       Atomic Center   80 is at   7.903253 -0.000000  2.146133
       Atomic Center   81 is at   5.972433  0.000000 -1.173960
       Atomic Center   82 is at   5.511927 -0.000000  3.667659
       Atomic Center   83 is at   6.568722 -0.000000  3.893946
       Atomic Center   84 is at   4.572599 -0.000000  4.694419
       Atomic Center   85 is at   4.897596 -0.000000  5.726901
       Atomic Center   86 is at   2.850243 -0.000000  3.037785
       Atomic Center   87 is at   1.809819 -0.000000  2.737309
       Atomic Center   88 is at   8.055792 -0.000000  0.000000
       Atomic Center   89 is at   9.138059 -0.000000 -0.000000
       Atomic Center   90 is at   3.218894 -0.000000  4.378446
       Atomic Center   91 is at   2.459377 -0.000000  5.148298
       Atomic Center   92 is at   7.365438  0.000000 -1.209125
       Atomic Center   93 is at   7.903253  0.000000 -2.146133
       Atomic Center   94 is at   5.067929  0.000000 -2.349483
       Atomic Center   95 is at   5.511927  0.000000 -3.667659
       Atomic Center   96 is at   6.568722  0.000000 -3.893946
       Atomic Center   97 is at   2.850243  0.000000 -3.037785
       Atomic Center   98 is at   1.809819  0.000000 -2.737309
       Atomic Center   99 is at   3.218894  0.000000 -4.378446
       Atomic Center  100 is at   2.459377  0.000000 -5.148298
       Atomic Center  101 is at   4.572599  0.000000 -4.694419
       Atomic Center  102 is at   4.897596  0.000000 -5.726901
 --------------------------------------------------------
       Center         ----  Spin Dipole Couplings  ----
                      3XX-RR        3YY-RR        3ZZ-RR
 --------------------------------------------------------
     1   Atom        0.047559     -0.136533      0.088975
     2   Atom       -0.080673      0.095391     -0.014718
     3   Atom       -0.083359     -0.086642      0.170000
     4   Atom       -0.080673      0.095391     -0.014718
     5   Atom        0.196482     -0.083245     -0.113237
     6   Atom       -0.014032     -0.006534      0.020566
     7   Atom        0.002009     -0.021394      0.019384
     8   Atom       -0.149618     -0.444742      0.594360
     9   Atom       -0.001456     -0.005606      0.007062
    10   Atom        0.019215     -0.025310      0.006095
    11   Atom        0.008831      0.014485     -0.023315
    12   Atom       -0.000309      0.003614     -0.003305
    13   Atom       -0.014032     -0.006534      0.020566
    14   Atom       -0.083359     -0.086642      0.170000
    15   Atom       -0.001456     -0.005606      0.007062
    16   Atom        0.017095     -0.024756      0.007661
    17   Atom        0.009834     -0.004124     -0.005710
    18   Atom        0.004186     -0.002940     -0.001245
    19   Atom        0.019215     -0.025310      0.006095
    20   Atom       -0.001536     -0.004551      0.006088
    21   Atom        0.001538     -0.003029      0.001491
    22   Atom        0.001498     -0.010194      0.008696
    23   Atom       -0.000477     -0.002105      0.002582
    24   Atom       -0.001643     -0.022913      0.024557
    25   Atom       -0.001937     -0.013426      0.015363
    26   Atom        0.008831      0.014485     -0.023315
    27   Atom       -0.000309      0.003614     -0.003305
    28   Atom        0.011149     -0.011505      0.000356
    29   Atom        0.003332     -0.001956     -0.001376
    30   Atom       -0.005749     -0.004185      0.009934
    31   Atom       -0.001723     -0.003464      0.005187
    32   Atom        0.002009     -0.021394      0.019384
    33   Atom        0.002681      0.030737     -0.033418
    34   Atom       -0.002402      0.011356     -0.008953
    35   Atom        0.009834     -0.004124     -0.005710
    36   Atom        0.004186     -0.002940     -0.001245
    37   Atom        0.002681      0.030737     -0.033418
    38   Atom       -0.002402      0.011356     -0.008953
    39   Atom        0.017095     -0.024756      0.007661
    40   Atom       -0.024476     -0.010107      0.034583
    41   Atom       -0.002242      0.005174     -0.002932
    42   Atom       -0.024476     -0.010107      0.034583
    43   Atom       -0.002242      0.005174     -0.002932
    44   Atom       -0.001536     -0.004551      0.006088
    45   Atom        0.001538     -0.003029      0.001491
    46   Atom       -0.001643     -0.022913      0.024557
    47   Atom       -0.001937     -0.013426      0.015363
    48   Atom       -0.005749     -0.004185      0.009934
    49   Atom       -0.001723     -0.003464      0.005187
    50   Atom        0.001498     -0.010194      0.008696
    51   Atom       -0.000477     -0.002105      0.002582
    52   Atom       -0.080673      0.095391     -0.014718
    53   Atom       -0.080673      0.095391     -0.014718
    54   Atom       -0.014032     -0.006534      0.020566
    55   Atom        0.002009     -0.021394      0.019384
    56   Atom       -0.149618     -0.444742      0.594360
    57   Atom       -0.001456     -0.005606      0.007062
    58   Atom        0.008831      0.014485     -0.023315
    59   Atom       -0.000309      0.003614     -0.003305
    60   Atom       -0.014032     -0.006534      0.020566
    61   Atom       -0.001456     -0.005606      0.007062
    62   Atom        0.008831      0.014485     -0.023315
    63   Atom       -0.000309      0.003614     -0.003305
    64   Atom        0.002009     -0.021394      0.019384
    65   Atom        0.002681      0.030737     -0.033418
    66   Atom       -0.002402      0.011356     -0.008953
    67   Atom        0.002681      0.030737     -0.033418
    68   Atom       -0.002402      0.011356     -0.008953
    69   Atom       -0.024476     -0.010107      0.034583
    70   Atom       -0.002242      0.005174     -0.002932
    71   Atom       -0.024476     -0.010107      0.034583
    72   Atom       -0.002242      0.005174     -0.002932
    73   Atom        0.047559     -0.136533      0.088975
    74   Atom       -0.083359     -0.086642      0.170000
    75   Atom        0.196482     -0.083245     -0.113237
    76   Atom        0.019215     -0.025310      0.006095
    77   Atom       -0.083359     -0.086642      0.170000
    78   Atom        0.017095     -0.024756      0.007661
    79   Atom        0.009834     -0.004124     -0.005710
    80   Atom        0.004186     -0.002940     -0.001245
    81   Atom        0.019215     -0.025310      0.006095
    82   Atom       -0.001536     -0.004551      0.006088
    83   Atom        0.001538     -0.003029      0.001491
    84   Atom        0.001498     -0.010194      0.008696
    85   Atom       -0.000477     -0.002105      0.002582
    86   Atom       -0.001643     -0.022913      0.024557
    87   Atom       -0.001937     -0.013426      0.015363
    88   Atom        0.011149     -0.011505      0.000356
    89   Atom        0.003332     -0.001956     -0.001376
    90   Atom       -0.005749     -0.004185      0.009934
    91   Atom       -0.001723     -0.003464      0.005187
    92   Atom        0.009834     -0.004124     -0.005710
    93   Atom        0.004186     -0.002940     -0.001245
    94   Atom        0.017095     -0.024756      0.007661
    95   Atom       -0.001536     -0.004551      0.006088
    96   Atom        0.001538     -0.003029      0.001491
    97   Atom       -0.001643     -0.022913      0.024557
    98   Atom       -0.001937     -0.013426      0.015363
    99   Atom       -0.005749     -0.004185      0.009934
   100   Atom       -0.001723     -0.003464      0.005187
   101   Atom        0.001498     -0.010194      0.008696
   102   Atom       -0.000477     -0.002105      0.002582
 --------------------------------------------------------
                        XY            XZ            YZ
 --------------------------------------------------------
     1   Atom       -0.000000      0.000000      0.000000
     2   Atom        0.088117     -0.000000      0.000000
     3   Atom        0.000000     -0.089257      0.000000
     4   Atom       -0.088117     -0.000000     -0.000000
     5   Atom        0.000000      0.000000      0.000000
     6   Atom       -0.003246      0.000000     -0.000000
     7   Atom       -0.019390     -0.000000     -0.000000
     8   Atom        0.000000      0.000000      0.000000
     9   Atom        0.006010     -0.000000      0.000000
    10   Atom       -0.000000     -0.014341      0.000000
    11   Atom        0.000496      0.000000     -0.000000
    12   Atom        0.001092      0.000000     -0.000000
    13   Atom        0.003246      0.000000     -0.000000
    14   Atom       -0.000000      0.089257     -0.000000
    15   Atom       -0.006010     -0.000000      0.000000
    16   Atom       -0.000000     -0.014317      0.000000
    17   Atom       -0.000000     -0.003847      0.000000
    18   Atom       -0.000000     -0.003146      0.000000
    19   Atom       -0.000000      0.014341     -0.000000
    20   Atom       -0.000000     -0.007626      0.000000
    21   Atom       -0.000000     -0.004158      0.000000
    22   Atom       -0.000000     -0.003149      0.000000
    23   Atom       -0.000000     -0.001733      0.000000
    24   Atom       -0.000000      0.006713      0.000000
    25   Atom       -0.000000      0.007666      0.000000
    26   Atom       -0.000496      0.000000      0.000000
    27   Atom       -0.001092      0.000000      0.000000
    28   Atom       -0.000000     -0.000000     -0.000000
    29   Atom       -0.000000      0.000000     -0.000000
    30   Atom       -0.000000     -0.002719      0.000000
    31   Atom       -0.000000     -0.000137     -0.000000
    32   Atom        0.019390      0.000000      0.000000
    33   Atom       -0.008933     -0.000000      0.000000
    34   Atom       -0.009148      0.000000     -0.000000
    35   Atom       -0.000000      0.003847     -0.000000
    36   Atom       -0.000000      0.003146     -0.000000
    37   Atom        0.008933      0.000000      0.000000
    38   Atom        0.009148      0.000000      0.000000
    39   Atom       -0.000000      0.014317     -0.000000
    40   Atom        0.000685     -0.000000     -0.000000
    41   Atom       -0.004269     -0.000000      0.000000
    42   Atom       -0.000685      0.000000      0.000000
    43   Atom        0.004269      0.000000      0.000000
    44   Atom       -0.000000      0.007626     -0.000000
    45   Atom       -0.000000      0.004158     -0.000000
    46   Atom        0.000000     -0.006713     -0.000000
    47   Atom       -0.000000     -0.007666      0.000000
    48   Atom       -0.000000      0.002719     -0.000000
    49   Atom        0.000000      0.000137     -0.000000
    50   Atom       -0.000000      0.003149     -0.000000
    51   Atom       -0.000000      0.001733     -0.000000
    52   Atom        0.088117      0.000000     -0.000000
    53   Atom       -0.088117     -0.000000      0.000000
    54   Atom       -0.003246      0.000000     -0.000000
    55   Atom       -0.019390      0.000000     -0.000000
    56   Atom       -0.000000     -0.000000     -0.000000
    57   Atom        0.006010      0.000000      0.000000
    58   Atom        0.000496      0.000000     -0.000000
    59   Atom        0.001092      0.000000      0.000000
    60   Atom        0.003246      0.000000      0.000000
    61   Atom       -0.006010      0.000000      0.000000
    62   Atom       -0.000496     -0.000000     -0.000000
    63   Atom       -0.001092     -0.000000     -0.000000
    64   Atom        0.019390     -0.000000     -0.000000
    65   Atom       -0.008933     -0.000000      0.000000
    66   Atom       -0.009148     -0.000000      0.000000
    67   Atom        0.008933      0.000000      0.000000
    68   Atom        0.009148      0.000000      0.000000
    69   Atom        0.000685      0.000000     -0.000000
    70   Atom       -0.004269     -0.000000     -0.000000
    71   Atom       -0.000685      0.000000      0.000000
    72   Atom        0.004269      0.000000      0.000000
    73   Atom        0.000000     -0.000000     -0.000000
    74   Atom       -0.000000      0.089257     -0.000000
    75   Atom       -0.000000     -0.000000      0.000000
    76   Atom       -0.000000      0.014341     -0.000000
    77   Atom        0.000000     -0.089257     -0.000000
    78   Atom       -0.000000      0.014317     -0.000000
    79   Atom       -0.000000      0.003847     -0.000000
    80   Atom       -0.000000      0.003146     -0.000000
    81   Atom        0.000000     -0.014341     -0.000000
    82   Atom       -0.000000      0.007626     -0.000000
    83   Atom       -0.000000      0.004158     -0.000000
    84   Atom       -0.000000      0.003149     -0.000000
    85   Atom       -0.000000      0.001733     -0.000000
    86   Atom       -0.000000     -0.006713      0.000000
    87   Atom       -0.000000     -0.007666      0.000000
    88   Atom       -0.000000      0.000000     -0.000000
    89   Atom       -0.000000     -0.000000     -0.000000
    90   Atom       -0.000000      0.002719     -0.000000
    91   Atom       -0.000000      0.000137     -0.000000
    92   Atom        0.000000     -0.003847     -0.000000
    93   Atom        0.000000     -0.003146     -0.000000
    94   Atom        0.000000     -0.014317     -0.000000
    95   Atom        0.000000     -0.007626     -0.000000
    96   Atom        0.000000     -0.004158     -0.000000
    97   Atom       -0.000000      0.006713     -0.000000
    98   Atom       -0.000000      0.007666     -0.000000
    99   Atom        0.000000     -0.002719     -0.000000
   100   Atom       -0.000000     -0.000137     -0.000000
   101   Atom        0.000000     -0.003149     -0.000000
   102   Atom        0.000000     -0.001733     -0.000000
 --------------------------------------------------------


 ---------------------------------------------------------------------------------
              Anisotropic Spin Dipole Couplings in Principal Axis System
 ---------------------------------------------------------------------------------

       Atom             a.u.   MegaHertz   Gauss  10(-4) cm-1        Axes

              Baa    -0.1365     6.521     2.327     2.175 -0.0000  1.0000 -0.0000
     1 Ni(61) Bbb     0.0476    -2.271    -0.811    -0.758  1.0000 -0.0000  0.0000
              Bcc     0.0890    -4.250    -1.516    -1.418  0.0000  0.0000  1.0000
 
              Baa    -0.1172    -4.520    -1.613    -1.508  0.9238 -0.3829  0.0000
     2 N(14)  Bbb    -0.0147    -0.568    -0.203    -0.189 -0.0000 -0.0000  1.0000
              Bcc     0.1319     5.088     1.815     1.697  0.3829  0.9238  0.0000
 
              Baa    -0.1116    -4.306    -1.536    -1.436  0.9533  0.0000  0.3021
     3 N(14)  Bbb    -0.0866    -3.342    -1.192    -1.115  0.0000  1.0000  0.0000
              Bcc     0.1983     7.647     2.729     2.551 -0.3021  0.0000  0.9533
 
              Baa    -0.1172    -4.520    -1.613    -1.508  0.9238  0.3829  0.0000
     4 N(14)  Bbb    -0.0147    -0.568    -0.203    -0.189  0.0000  0.0000  1.0000
              Bcc     0.1319     5.088     1.815     1.697 -0.3829  0.9238 -0.0000
 
              Baa    -0.1132    -4.367    -1.558    -1.457  0.0000  0.0000  1.0000
     5 N(14)  Bbb    -0.0832    -3.211    -1.146    -1.071 -0.0000  1.0000 -0.0000
              Bcc     0.1965     7.578     2.704     2.528  1.0000  0.0000 -0.0000
 
              Baa    -0.0152    -2.045    -0.730    -0.682  0.9370  0.3493  0.0000
     6 C(13)  Bbb    -0.0053    -0.714    -0.255    -0.238 -0.3493  0.9370  0.0000
              Bcc     0.0206     2.760     0.985     0.921  0.0000  0.0000  1.0000
 
              Baa    -0.0323    -4.340    -1.549    -1.448  0.4916  0.8708 -0.0000
     7 C(13)  Bbb     0.0130     1.738     0.620     0.580  0.8708 -0.4916  0.0000
              Bcc     0.0194     2.601     0.928     0.868  0.0000  0.0000  1.0000
 
              Baa    -0.4447   -17.153    -6.121    -5.722 -0.0000  1.0000 -0.0000
     8 N(14)  Bbb    -0.1496    -5.770    -2.059    -1.925  1.0000  0.0000 -0.0000
              Bcc     0.5944    22.923     8.180     7.646  0.0000  0.0000  1.0000
 
              Baa    -0.0099    -1.327    -0.474    -0.443 -0.5804  0.8143 -0.0000
     9 C(13)  Bbb     0.0028     0.379     0.135     0.127  0.8143  0.5804  0.0000
              Bcc     0.0071     0.948     0.338     0.316 -0.0000 -0.0000  1.0000
 
              Baa    -0.0253    -3.396    -1.212    -1.133 -0.0000  1.0000 -0.0000
    10 C(13)  Bbb    -0.0031    -0.418    -0.149    -0.139  0.5404  0.0000  0.8414
              Bcc     0.0284     3.814     1.361     1.272  0.8414 -0.0000 -0.5404
 
              Baa    -0.0233    -3.129    -1.116    -1.044  0.0000  0.0000  1.0000
    11 C(13)  Bbb     0.0088     1.179     0.421     0.393  0.9962 -0.0867  0.0000
              Bcc     0.0145     1.949     0.696     0.650  0.0867  0.9962 -0.0000
 
              Baa    -0.0033    -1.763    -0.629    -0.588  0.0000  0.0000  1.0000
    12 H(1)   Bbb    -0.0006    -0.316    -0.113    -0.105  0.9679 -0.2513  0.0000
              Bcc     0.0039     2.080     0.742     0.694  0.2513  0.9679 -0.0000
 
              Baa    -0.0152    -2.045    -0.730    -0.682  0.9370 -0.3493 -0.0000
    13 C(13)  Bbb    -0.0053    -0.714    -0.255    -0.238  0.3493  0.9370  0.0000
              Bcc     0.0206     2.760     0.985     0.921  0.0000 -0.0000  1.0000
 
              Baa    -0.1116    -4.306    -1.536    -1.436  0.9533 -0.0000 -0.3021
    14 N(14)  Bbb    -0.0866    -3.342    -1.192    -1.115  0.0000  1.0000  0.0000
              Bcc     0.1983     7.647     2.729     2.551  0.3021 -0.0000  0.9533
 
              Baa    -0.0099    -1.327    -0.474    -0.443  0.5804  0.8143  0.0000
    15 C(13)  Bbb     0.0028     0.379     0.135     0.127  0.8143 -0.5804  0.0000
              Bcc     0.0071     0.948     0.338     0.316 -0.0000  0.0000  1.0000
 
              Baa    -0.0248    -3.322    -1.185    -1.108 -0.0000  1.0000 -0.0000
    16 C(13)  Bbb    -0.0027    -0.362    -0.129    -0.121  0.5861  0.0000  0.8102
              Bcc     0.0275     3.684     1.314     1.229  0.8102 -0.0000 -0.5861
 
              Baa    -0.0066    -0.887    -0.316    -0.296  0.2278 -0.0000  0.9737
    17 C(13)  Bbb    -0.0041    -0.553    -0.197    -0.185  0.0000  1.0000  0.0000
              Bcc     0.0107     1.440     0.514     0.480  0.9737  0.0000 -0.2278
 
              Baa    -0.0029    -1.569    -0.560    -0.523 -0.0000  1.0000 -0.0000
    18 H(1)   Bbb    -0.0027    -1.433    -0.511    -0.478  0.4163  0.0000  0.9092
              Bcc     0.0056     3.002     1.071     1.001  0.9092  0.0000 -0.4163
 
              Baa    -0.0253    -3.396    -1.212    -1.133 -0.0000  1.0000  0.0000
    19 C(13)  Bbb    -0.0031    -0.418    -0.149    -0.139 -0.5404 -0.0000  0.8414
              Bcc     0.0284     3.814     1.361     1.272  0.8414 -0.0000  0.5404
 
              Baa    -0.0062    -0.839    -0.299    -0.280  0.8506  0.0000  0.5258
    20 C(13)  Bbb    -0.0046    -0.611    -0.218    -0.204  0.0000  1.0000  0.0000
              Bcc     0.0108     1.449     0.517     0.483 -0.5258  0.0000  0.8506
 
              Baa    -0.0030    -1.616    -0.577    -0.539  0.0000  1.0000  0.0000
    21 H(1)   Bbb    -0.0026    -1.410    -0.503    -0.470  0.7051  0.0000  0.7091
              Bcc     0.0057     3.027     1.080     1.010  0.7091 -0.0000 -0.7051
 
              Baa    -0.0102    -1.368    -0.488    -0.456 -0.0000  1.0000 -0.0000
    22 C(13)  Bbb     0.0003     0.042     0.015     0.014  0.9361  0.0000  0.3517
              Bcc     0.0099     1.326     0.473     0.442 -0.3517  0.0000  0.9361
 
              Baa    -0.0021    -1.123    -0.401    -0.375 -0.0000  1.0000 -0.0000
    23 H(1)   Bbb    -0.0013    -0.672    -0.240    -0.224  0.9115  0.0000  0.4113
              Bcc     0.0034     1.795     0.640     0.599 -0.4113  0.0000  0.9115
 
              Baa    -0.0229    -3.075    -1.097    -1.026 -0.0000  1.0000  0.0000
    24 C(13)  Bbb    -0.0033    -0.438    -0.156    -0.146  0.9721  0.0000 -0.2346
              Bcc     0.0262     3.513     1.253     1.172  0.2346  0.0000  0.9721
 
              Baa    -0.0134    -7.163    -2.556    -2.389  0.0000  1.0000 -0.0000
    25 H(1)   Bbb    -0.0048    -2.585    -0.922    -0.862  0.9350 -0.0000 -0.3547
              Bcc     0.0183     9.748     3.478     3.252  0.3547 -0.0000  0.9350
 
              Baa    -0.0233    -3.129    -1.116    -1.044  0.0000  0.0000  1.0000
    26 C(13)  Bbb     0.0088     1.179     0.421     0.393  0.9962  0.0867 -0.0000
              Bcc     0.0145     1.949     0.696     0.650 -0.0867  0.9962 -0.0000
 
              Baa    -0.0033    -1.763    -0.629    -0.588 -0.0000 -0.0000  1.0000
    27 H(1)   Bbb    -0.0006    -0.316    -0.113    -0.105  0.9679  0.2513  0.0000
              Bcc     0.0039     2.080     0.742     0.694 -0.2513  0.9679  0.0000
 
              Baa    -0.0115    -1.544    -0.551    -0.515  0.0000  1.0000  0.0000
    28 C(13)  Bbb     0.0004     0.048     0.017     0.016  0.0000 -0.0000  1.0000
              Bcc     0.0111     1.496     0.534     0.499  1.0000  0.0000 -0.0000
 
              Baa    -0.0020    -1.043    -0.372    -0.348  0.0000  1.0000 -0.0000
    29 H(1)   Bbb    -0.0014    -0.734    -0.262    -0.245  0.0000  0.0000  1.0000
              Bcc     0.0033     1.778     0.634     0.593  1.0000 -0.0000  0.0000
 
              Baa    -0.0062    -0.833    -0.297    -0.278  0.9861  0.0000  0.1661
    30 C(13)  Bbb    -0.0042    -0.562    -0.200    -0.187  0.0000  1.0000  0.0000
              Bcc     0.0104     1.394     0.498     0.465 -0.1661  0.0000  0.9861
 
              Baa    -0.0035    -1.848    -0.659    -0.616 -0.0000  1.0000  0.0000
    31 H(1)   Bbb    -0.0017    -0.921    -0.329    -0.307  0.9998  0.0000  0.0198
              Bcc     0.0052     2.769     0.988     0.924 -0.0198 -0.0000  0.9998
 
              Baa    -0.0323    -4.340    -1.549    -1.448 -0.4916  0.8708 -0.0000
    32 C(13)  Bbb     0.0130     1.738     0.620     0.580  0.8708  0.4916 -0.0000
              Bcc     0.0194     2.601     0.928     0.868  0.0000  0.0000  1.0000
 
              Baa    -0.0334    -4.484    -1.600    -1.496  0.0000  0.0000  1.0000
    33 C(13)  Bbb     0.0001     0.010     0.004     0.003  0.9601  0.2797  0.0000
              Bcc     0.0333     4.474     1.596     1.492 -0.2797  0.9601 -0.0000
 
              Baa    -0.0090    -4.777    -1.705    -1.593  0.0000  0.0000  1.0000
    34 H(1)   Bbb    -0.0070    -3.718    -1.327    -1.240  0.8947  0.4466  0.0000
              Bcc     0.0159     8.495     3.031     2.834 -0.4466  0.8947 -0.0000
 
              Baa    -0.0066    -0.887    -0.316    -0.296 -0.2278  0.0000  0.9737
    35 C(13)  Bbb    -0.0041    -0.553    -0.197    -0.185  0.0000  1.0000  0.0000
              Bcc     0.0107     1.440     0.514     0.480  0.9737 -0.0000  0.2278
 
              Baa    -0.0029    -1.569    -0.560    -0.523 -0.0000  1.0000  0.0000
    36 H(1)   Bbb    -0.0027    -1.433    -0.511    -0.478 -0.4163 -0.0000  0.9092
              Bcc     0.0056     3.002     1.071     1.001  0.9092 -0.0000  0.4163
 
              Baa    -0.0334    -4.484    -1.600    -1.496  0.0000  0.0000  1.0000
    37 C(13)  Bbb     0.0001     0.010     0.004     0.003  0.9601 -0.2797  0.0000
              Bcc     0.0333     4.474     1.596     1.492  0.2797  0.9601 -0.0000
 
              Baa    -0.0090    -4.777    -1.705    -1.593  0.0000 -0.0000  1.0000
    38 H(1)   Bbb    -0.0070    -3.718    -1.327    -1.240  0.8947 -0.4466 -0.0000
              Bcc     0.0159     8.495     3.031     2.834  0.4466  0.8947  0.0000
 
              Baa    -0.0248    -3.322    -1.185    -1.108  0.0000  1.0000  0.0000
    39 C(13)  Bbb    -0.0027    -0.362    -0.129    -0.121 -0.5861 -0.0000  0.8102
              Bcc     0.0275     3.684     1.314     1.229  0.8102 -0.0000  0.5861
 
              Baa    -0.0245    -3.289    -1.174    -1.097  0.9989 -0.0475 -0.0000
    40 C(13)  Bbb    -0.0101    -1.352    -0.482    -0.451  0.0475  0.9989 -0.0000
              Bcc     0.0346     4.641     1.656     1.548  0.0000  0.0000  1.0000
 
              Baa    -0.0042    -2.235    -0.797    -0.745  0.9099  0.4148  0.0000
    41 H(1)   Bbb    -0.0029    -1.564    -0.558    -0.522  0.0000  0.0000  1.0000
              Bcc     0.0071     3.799     1.356     1.267 -0.4148  0.9099 -0.0000
 
              Baa    -0.0245    -3.289    -1.174    -1.097  0.9989  0.0475 -0.0000
    42 C(13)  Bbb    -0.0101    -1.352    -0.482    -0.451 -0.0475  0.9989 -0.0000
              Bcc     0.0346     4.641     1.656     1.548  0.0000  0.0000  1.0000
 
              Baa    -0.0042    -2.235    -0.797    -0.745  0.9099 -0.4148  0.0000
    43 H(1)   Bbb    -0.0029    -1.564    -0.558    -0.522 -0.0000  0.0000  1.0000
              Bcc     0.0071     3.799     1.356     1.267  0.4148  0.9099  0.0000
 
              Baa    -0.0062    -0.839    -0.299    -0.280  0.8506 -0.0000 -0.5258
    44 C(13)  Bbb    -0.0046    -0.611    -0.218    -0.204  0.0000  1.0000  0.0000
              Bcc     0.0108     1.449     0.517     0.483  0.5258 -0.0000  0.8506
 
              Baa    -0.0030    -1.616    -0.577    -0.539  0.0000  1.0000  0.0000
    45 H(1)   Bbb    -0.0026    -1.410    -0.503    -0.470 -0.7051  0.0000  0.7091
              Bcc     0.0057     3.027     1.080     1.010  0.7091 -0.0000  0.7051
 
              Baa    -0.0229    -3.075    -1.097    -1.026 -0.0000  1.0000  0.0000
    46 C(13)  Bbb    -0.0033    -0.438    -0.156    -0.146  0.9721  0.0000  0.2346
              Bcc     0.0262     3.513     1.253     1.172 -0.2346 -0.0000  0.9721
 
              Baa    -0.0134    -7.163    -2.556    -2.389  0.0000  1.0000  0.0000
    47 H(1)   Bbb    -0.0048    -2.585    -0.922    -0.862  0.9350  0.0000  0.3547
              Bcc     0.0183     9.748     3.478     3.252 -0.3547  0.0000  0.9350
 
              Baa    -0.0062    -0.833    -0.297    -0.278  0.9861  0.0000 -0.1661
    48 C(13)  Bbb    -0.0042    -0.562    -0.200    -0.187 -0.0000  1.0000  0.0000
              Bcc     0.0104     1.394     0.498     0.465  0.1661 -0.0000  0.9861
 
              Baa    -0.0035    -1.848    -0.659    -0.616  0.0000  1.0000  0.0000
    49 H(1)   Bbb    -0.0017    -0.921    -0.329    -0.307  0.9998 -0.0000 -0.0198
              Bcc     0.0052     2.769     0.988     0.924  0.0198 -0.0000  0.9998
 
              Baa    -0.0102    -1.368    -0.488    -0.456 -0.0000  1.0000  0.0000
    50 C(13)  Bbb     0.0003     0.042     0.015     0.014  0.9361 -0.0000 -0.3517
              Bcc     0.0099     1.326     0.473     0.442  0.3517 -0.0000  0.9361
 
              Baa    -0.0021    -1.123    -0.401    -0.375  0.0000  1.0000  0.0000
    51 H(1)   Bbb    -0.0013    -0.672    -0.240    -0.224  0.9115  0.0000 -0.4113
              Bcc     0.0034     1.795     0.640     0.599  0.4113 -0.0000  0.9115
 
              Baa    -0.1172    -4.520    -1.613    -1.508  0.9238 -0.3829 -0.0000
    52 N(14)  Bbb    -0.0147    -0.568    -0.203    -0.189  0.0000  0.0000  1.0000
              Bcc     0.1319     5.088     1.815     1.697  0.3829  0.9238 -0.0000
 
              Baa    -0.1172    -4.520    -1.613    -1.508  0.9238  0.3829 -0.0000
    53 N(14)  Bbb    -0.0147    -0.568    -0.203    -0.189  0.0000 -0.0000  1.0000
              Bcc     0.1319     5.088     1.815     1.697 -0.3829  0.9238  0.0000
 
              Baa    -0.0152    -2.045    -0.730    -0.682  0.9370  0.3493 -0.0000
    54 C(13)  Bbb    -0.0053    -0.714    -0.255    -0.238 -0.3493  0.9370  0.0000
              Bcc     0.0206     2.760     0.985     0.921  0.0000 -0.0000  1.0000
 
              Baa    -0.0323    -4.340    -1.549    -1.448  0.4916  0.8708  0.0000
    55 C(13)  Bbb     0.0130     1.738     0.620     0.580  0.8708 -0.4916 -0.0000
              Bcc     0.0194     2.601     0.928     0.868  0.0000 -0.0000  1.0000
 
              Baa    -0.4447   -17.153    -6.121    -5.722  0.0000  1.0000 -0.0000
    56 N(14)  Bbb    -0.1496    -5.770    -2.059    -1.925  1.0000 -0.0000 -0.0000
              Bcc     0.5944    22.923     8.180     7.646  0.0000  0.0000  1.0000
 
              Baa    -0.0099    -1.327    -0.474    -0.443 -0.5804  0.8143  0.0000
    57 C(13)  Bbb     0.0028     0.379     0.135     0.127  0.8143  0.5804 -0.0000
              Bcc     0.0071     0.948     0.338     0.316  0.0000  0.0000  1.0000
 
              Baa    -0.0233    -3.129    -1.116    -1.044  0.0000  0.0000  1.0000
    58 C(13)  Bbb     0.0088     1.179     0.421     0.393  0.9962 -0.0867  0.0000
              Bcc     0.0145     1.949     0.696     0.650  0.0867  0.9962 -0.0000
 
              Baa    -0.0033    -1.763    -0.629    -0.588  0.0000  0.0000  1.0000
    59 H(1)   Bbb    -0.0006    -0.316    -0.113    -0.105  0.9679 -0.2513  0.0000
              Bcc     0.0039     2.080     0.742     0.694  0.2513  0.9679 -0.0000
 
              Baa    -0.0152    -2.045    -0.730    -0.682  0.9370 -0.3493 -0.0000
    60 C(13)  Bbb    -0.0053    -0.714    -0.255    -0.238  0.3493  0.9370 -0.0000
              Bcc     0.0206     2.760     0.985     0.921  0.0000  0.0000  1.0000
 
              Baa    -0.0099    -1.327    -0.474    -0.443  0.5804  0.8143 -0.0000
    61 C(13)  Bbb     0.0028     0.379     0.135     0.127  0.8143 -0.5804  0.0000
              Bcc     0.0071     0.948     0.338     0.316  0.0000  0.0000  1.0000
 
              Baa    -0.0233    -3.129    -1.116    -1.044  0.0000  0.0000  1.0000
    62 C(13)  Bbb     0.0088     1.179     0.421     0.393  0.9962  0.0867 -0.0000
              Bcc     0.0145     1.949     0.696     0.650 -0.0867  0.9962 -0.0000
 
              Baa    -0.0033    -1.763    -0.629    -0.588  0.0000  0.0000  1.0000
    63 H(1)   Bbb    -0.0006    -0.316    -0.113    -0.105  0.9679  0.2513 -0.0000
              Bcc     0.0039     2.080     0.742     0.694 -0.2513  0.9679 -0.0000
 
              Baa    -0.0323    -4.340    -1.549    -1.448 -0.4916  0.8708  0.0000
    64 C(13)  Bbb     0.0130     1.738     0.620     0.580  0.8708  0.4916  0.0000
              Bcc     0.0194     2.601     0.928     0.868 -0.0000 -0.0000  1.0000
 
              Baa    -0.0334    -4.484    -1.600    -1.496  0.0000  0.0000  1.0000
    65 C(13)  Bbb     0.0001     0.010     0.004     0.003  0.9601  0.2797  0.0000
              Bcc     0.0333     4.474     1.596     1.492 -0.2797  0.9601 -0.0000
 
              Baa    -0.0090    -4.777    -1.705    -1.593 -0.0000 -0.0000  1.0000
    66 H(1)   Bbb    -0.0070    -3.718    -1.327    -1.240  0.8947  0.4466  0.0000
              Bcc     0.0159     8.495     3.031     2.834 -0.4466  0.8947  0.0000
 
              Baa    -0.0334    -4.484    -1.600    -1.496  0.0000  0.0000  1.0000
    67 C(13)  Bbb     0.0001     0.010     0.004     0.003  0.9601 -0.2797  0.0000
              Bcc     0.0333     4.474     1.596     1.492  0.2797  0.9601 -0.0000
 
              Baa    -0.0090    -4.777    -1.705    -1.593 -0.0000 -0.0000  1.0000
    68 H(1)   Bbb    -0.0070    -3.718    -1.327    -1.240  0.8947 -0.4466  0.0000
              Bcc     0.0159     8.495     3.031     2.834  0.4466  0.8947  0.0000
 
              Baa    -0.0245    -3.289    -1.174    -1.097  0.9989 -0.0475  0.0000
    69 C(13)  Bbb    -0.0101    -1.352    -0.482    -0.451  0.0475  0.9989  0.0000
              Bcc     0.0346     4.641     1.656     1.548  0.0000  0.0000  1.0000
 
              Baa    -0.0042    -2.235    -0.797    -0.745  0.9099  0.4148 -0.0000
    70 H(1)   Bbb    -0.0029    -1.564    -0.558    -0.522  0.0000  0.0000  1.0000
              Bcc     0.0071     3.799     1.356     1.267 -0.4148  0.9099 -0.0000
 
              Baa    -0.0245    -3.289    -1.174    -1.097  0.9989  0.0475 -0.0000
    71 C(13)  Bbb    -0.0101    -1.352    -0.482    -0.451 -0.0475  0.9989 -0.0000
              Bcc     0.0346     4.641     1.656     1.548  0.0000  0.0000  1.0000
 
              Baa    -0.0042    -2.235    -0.797    -0.745  0.9099 -0.4148  0.0000
    72 H(1)   Bbb    -0.0029    -1.564    -0.558    -0.522 -0.0000  0.0000  1.0000
              Bcc     0.0071     3.799     1.356     1.267  0.4148  0.9099  0.0000
 
              Baa    -0.1365     6.521     2.327     2.175 -0.0000  1.0000  0.0000
    73 Ni(61) Bbb     0.0476    -2.271    -0.811    -0.758  1.0000 -0.0000  0.0000
              Bcc     0.0890    -4.250    -1.516    -1.418 -0.0000 -0.0000  1.0000
 
              Baa    -0.1116    -4.306    -1.536    -1.436  0.9533 -0.0000 -0.3021
    74 N(14)  Bbb    -0.0866    -3.342    -1.192    -1.115  0.0000  1.0000  0.0000
              Bcc     0.1983     7.647     2.729     2.551  0.3021  0.0000  0.9533
 
              Baa    -0.1132    -4.367    -1.558    -1.457  0.0000  0.0000  1.0000
    75 N(14)  Bbb    -0.0832    -3.211    -1.146    -1.071 -0.0000  1.0000 -0.0000
              Bcc     0.1965     7.578     2.704     2.528  1.0000 -0.0000  0.0000
 
              Baa    -0.0253    -3.396    -1.212    -1.133 -0.0000  1.0000  0.0000
    76 C(13)  Bbb    -0.0031    -0.418    -0.149    -0.139 -0.5404  0.0000  0.8414
              Bcc     0.0284     3.814     1.361     1.272  0.8414 -0.0000  0.5404
 
              Baa    -0.1116    -4.306    -1.536    -1.436  0.9533 -0.0000  0.3021
    77 N(14)  Bbb    -0.0866    -3.342    -1.192    -1.115  0.0000  1.0000  0.0000
              Bcc     0.1983     7.647     2.729     2.551 -0.3021 -0.0000  0.9533
 
              Baa    -0.0248    -3.322    -1.185    -1.108  0.0000  1.0000  0.0000
    78 C(13)  Bbb    -0.0027    -0.362    -0.129    -0.121 -0.5861 -0.0000  0.8102
              Bcc     0.0275     3.684     1.314     1.229  0.8102 -0.0000  0.5861
 
              Baa    -0.0066    -0.887    -0.316    -0.296 -0.2278  0.0000  0.9737
    79 C(13)  Bbb    -0.0041    -0.553    -0.197    -0.185  0.0000  1.0000  0.0000
              Bcc     0.0107     1.440     0.514     0.480  0.9737 -0.0000  0.2278
 
              Baa    -0.0029    -1.569    -0.560    -0.523 -0.0000  1.0000  0.0000
    80 H(1)   Bbb    -0.0027    -1.433    -0.511    -0.478 -0.4163 -0.0000  0.9092
              Bcc     0.0056     3.002     1.071     1.001  0.9092 -0.0000  0.4163
 
              Baa    -0.0253    -3.396    -1.212    -1.133 -0.0000  1.0000  0.0000
    81 C(13)  Bbb    -0.0031    -0.418    -0.149    -0.139  0.5404 -0.0000  0.8414
              Bcc     0.0284     3.814     1.361     1.272  0.8414  0.0000 -0.5404
 
              Baa    -0.0062    -0.839    -0.299    -0.280  0.8506  0.0000 -0.5258
    82 C(13)  Bbb    -0.0046    -0.611    -0.218    -0.204 -0.0000  1.0000  0.0000
              Bcc     0.0108     1.449     0.517     0.483  0.5258 -0.0000  0.8506
 
              Baa    -0.0030    -1.616    -0.577    -0.539 -0.0000  1.0000  0.0000
    83 H(1)   Bbb    -0.0026    -1.410    -0.503    -0.470 -0.7051 -0.0000  0.7091
              Bcc     0.0057     3.027     1.080     1.010  0.7091 -0.0000  0.7051
 
              Baa    -0.0102    -1.368    -0.488    -0.456 -0.0000  1.0000  0.0000
    84 C(13)  Bbb     0.0003     0.042     0.015     0.014  0.9361 -0.0000 -0.3517
              Bcc     0.0099     1.326     0.473     0.442  0.3517 -0.0000  0.9361
 
              Baa    -0.0021    -1.123    -0.401    -0.375 -0.0000  1.0000  0.0000
    85 H(1)   Bbb    -0.0013    -0.672    -0.240    -0.224  0.9115 -0.0000 -0.4113
              Bcc     0.0034     1.795     0.640     0.599  0.4113 -0.0000  0.9115
 
              Baa    -0.0229    -3.075    -1.097    -1.026 -0.0000  1.0000 -0.0000
    86 C(13)  Bbb    -0.0033    -0.438    -0.156    -0.146  0.9721 -0.0000  0.2346
              Bcc     0.0262     3.513     1.253     1.172 -0.2346  0.0000  0.9721
 
              Baa    -0.0134    -7.163    -2.556    -2.389 -0.0000  1.0000 -0.0000
    87 H(1)   Bbb    -0.0048    -2.585    -0.922    -0.862  0.9350  0.0000  0.3547
              Bcc     0.0183     9.748     3.478     3.252 -0.3547  0.0000  0.9350
 
              Baa    -0.0115    -1.544    -0.551    -0.515 -0.0000  1.0000  0.0000
    88 C(13)  Bbb     0.0004     0.048     0.017     0.016 -0.0000 -0.0000  1.0000
              Bcc     0.0111     1.496     0.534     0.499  1.0000 -0.0000  0.0000
 
              Baa    -0.0020    -1.043    -0.372    -0.348  0.0000  1.0000  0.0000
    89 H(1)   Bbb    -0.0014    -0.734    -0.262    -0.245  0.0000 -0.0000  1.0000
              Bcc     0.0033     1.778     0.634     0.593  1.0000 -0.0000 -0.0000
 
              Baa    -0.0062    -0.833    -0.297    -0.278  0.9861 -0.0000 -0.1661
    90 C(13)  Bbb    -0.0042    -0.562    -0.200    -0.187  0.0000  1.0000  0.0000
              Bcc     0.0104     1.394     0.498     0.465  0.1661 -0.0000  0.9861
 
              Baa    -0.0035    -1.848    -0.659    -0.616  0.0000  1.0000  0.0000
    91 H(1)   Bbb    -0.0017    -0.921    -0.329    -0.307  0.9998 -0.0000 -0.0198
              Bcc     0.0052     2.769     0.988     0.924  0.0198 -0.0000  0.9998
 
              Baa    -0.0066    -0.887    -0.316    -0.296  0.2278  0.0000  0.9737
    92 C(13)  Bbb    -0.0041    -0.553    -0.197    -0.185 -0.0000  1.0000 -0.0000
              Bcc     0.0107     1.440     0.514     0.480  0.9737  0.0000 -0.2278
 
              Baa    -0.0029    -1.569    -0.560    -0.523 -0.0000  1.0000 -0.0000
    93 H(1)   Bbb    -0.0027    -1.433    -0.511    -0.478  0.4163  0.0000  0.9092
              Bcc     0.0056     3.002     1.071     1.001  0.9092  0.0000 -0.4163
 
              Baa    -0.0248    -3.322    -1.185    -1.108 -0.0000  1.0000  0.0000
    94 C(13)  Bbb    -0.0027    -0.362    -0.129    -0.121  0.5861 -0.0000  0.8102
              Bcc     0.0275     3.684     1.314     1.229  0.8102  0.0000 -0.5861
 
              Baa    -0.0062    -0.839    -0.299    -0.280  0.8506 -0.0000  0.5258
    95 C(13)  Bbb    -0.0046    -0.611    -0.218    -0.204  0.0000  1.0000  0.0000
              Bcc     0.0108     1.449     0.517     0.483 -0.5258 -0.0000  0.8506
 
              Baa    -0.0030    -1.616    -0.577    -0.539 -0.0000  1.0000 -0.0000
    96 H(1)   Bbb    -0.0026    -1.410    -0.503    -0.470  0.7051  0.0000  0.7091
              Bcc     0.0057     3.027     1.080     1.010  0.7091  0.0000 -0.7051
 
              Baa    -0.0229    -3.075    -1.097    -1.026 -0.0000  1.0000  0.0000
    97 C(13)  Bbb    -0.0033    -0.438    -0.156    -0.146  0.9721  0.0000 -0.2346
              Bcc     0.0262     3.513     1.253     1.172  0.2346 -0.0000  0.9721
 
              Baa    -0.0134    -7.163    -2.556    -2.389 -0.0000  1.0000  0.0000
    98 H(1)   Bbb    -0.0048    -2.585    -0.922    -0.862  0.9350  0.0000 -0.3547
              Bcc     0.0183     9.748     3.478     3.252  0.3547 -0.0000  0.9350
 
              Baa    -0.0062    -0.833    -0.297    -0.278  0.9861  0.0000  0.1661
    99 C(13)  Bbb    -0.0042    -0.562    -0.200    -0.187 -0.0000  1.0000 -0.0000
              Bcc     0.0104     1.394     0.498     0.465 -0.1661 -0.0000  0.9861
 
              Baa    -0.0035    -1.848    -0.659    -0.616  0.0000  1.0000  0.0000
   100 H(1)   Bbb    -0.0017    -0.921    -0.329    -0.307  0.9998 -0.0000  0.0198
              Bcc     0.0052     2.769     0.988     0.924 -0.0198 -0.0000  0.9998
 
              Baa    -0.0102    -1.368    -0.488    -0.456 -0.0000  1.0000  0.0000
   101 C(13)  Bbb     0.0003     0.042     0.015     0.014  0.9361 -0.0000  0.3517
              Bcc     0.0099     1.326     0.473     0.442 -0.3517 -0.0000  0.9361
 
              Baa    -0.0021    -1.123    -0.401    -0.375  0.0000  1.0000  0.0000
   102 H(1)   Bbb    -0.0013    -0.672    -0.240    -0.224  0.9115 -0.0000  0.4113
              Bcc     0.0034     1.795     0.640     0.599 -0.4113 -0.0000  0.9115
 

 ---------------------------------------------------------------------------------

 Leave Link  602 at Fri Aug 30 17:38:55 2024, MaxMem= 11953766400 cpu:               5.9 elap:               0.2
 (Enter /opt/gaussian16/g16/l9999.exe)
 1\1\GINC-CHPC-LINUX-11\SP\UTPSSh\6-311G(d,p)\C54H34N12Ni2(3+,6)\JON\30
 -Aug-2024\0\\#p prop=epr geom=allcheck tpssh/6-311g** int=grid=ultrafi
 ne scf=(xqc,maxcycle=500,IntRep) SCRF(CPCM, SOLVENT=ACETONITRILE)\\DFT
  B3LYP/6-31g**/D3BJ optimisation of {Ni2}3+ - once reduced xrd cation 
 sextet - symmetrised to d2h\\3,6\Ni,0,3.3400691493,0.,0.\N,0,2.7792971
 141,0.,2.256316833\N,0,3.7483562054,2.0519090752,0.\N,0,2.7792971141,0
 .,-2.256316833\N,0,5.3302392913,0.,0.\C,0,-0.7321004332,0.,3.619438055
 \C,0,0.6921197627,0.,-1.1586635421\N,0,1.3900344109,0.,0.\C,0,1.423763
 3028,0.,2.3820656265\C,0,5.9724329894,1.1739597749,0.\C,0,1.5375036441
 ,0.,-4.7710029969\H,0,1.092704495,0.,-5.7574343755\C,0,0.7321004332,0.
 ,3.619438055\N,0,3.7483562054,-2.0519090752,0.\C,0,1.4237633028,0.,-2.
 3820656265\C,0,5.0679289928,2.349482906,0.\C,0,7.3654378619,1.20912521
 56,0.\H,0,7.9032527599,2.1461330296,0.\C,0,5.9724329894,-1.1739597749,
 0.\C,0,5.5119269469,3.6676587122,0.\H,0,6.5687217069,3.8939463531,0.\C
 ,0,4.5725986306,4.694419429,0.\H,0,4.8975956335,5.7269013469,0.\C,0,2.
 8502430401,3.0377845737,0.\H,0,1.8098186464,2.7373090351,0.\C,0,1.5375
 036441,0.,4.7710029969\H,0,1.092704495,0.,5.7574343755\C,0,8.055791606
 5,0.,0.\H,0,9.1380591162,0.,0.\C,0,3.2188943752,4.3784455769,0.\H,0,2.
 4593769677,5.1482979056,0.\C,0,0.6921197627,0.,1.1586635421\C,0,3.5009
 100896,0.,3.369098254\H,0,4.5782726062,0.,3.2502000144\C,0,7.365437861
 9,-1.2091252156,0.\H,0,7.9032527599,-2.1461330296,0.\C,0,3.5009100896,
 0.,-3.369098254\H,0,4.5782726062,0.,-3.2502000144\C,0,5.0679289928,-2.
 349482906,0.\C,0,2.9165458205,0.,4.6447995197\H,0,3.5507840494,0.,5.52
 0844421\C,0,2.9165458205,0.,-4.6447995197\H,0,3.5507840494,0.,-5.52084
 4421\C,0,5.5119269469,-3.6676587122,0.\H,0,6.5687217069,-3.8939463531,
 0.\C,0,2.8502430401,-3.0377845737,0.\H,0,1.8098186464,-2.7373090351,0.
 \C,0,3.2188943752,-4.3784455769,0.\H,0,2.4593769677,-5.1482979056,0.\C
 ,0,4.5725986306,-4.694419429,0.\H,0,4.8975956335,-5.7269013469,0.\N,0,
 -2.7792971141,0.,-2.256316833\N,0,-2.7792971141,0.,2.256316833\C,0,0.7
 321004332,0.,-3.619438055\C,0,-0.6921197627,0.,1.1586635421\N,0,-1.390
 0344109,0.,0.\C,0,-1.4237633028,0.,-2.3820656265\C,0,-1.5375036441,0.,
 4.7710029969\H,0,-1.092704495,0.,5.7574343755\C,0,-0.7321004332,0.,-3.
 619438055\C,0,-1.4237633028,0.,2.3820656265\C,0,-1.5375036441,0.,-4.77
 10029969\H,0,-1.092704495,0.,-5.7574343755\C,0,-0.6921197627,0.,-1.158
 6635421\C,0,-3.5009100896,0.,-3.369098254\H,0,-4.5782726062,0.,-3.2502
 000144\C,0,-3.5009100896,0.,3.369098254\H,0,-4.5782726062,0.,3.2502000
 144\C,0,-2.9165458205,0.,-4.6447995197\H,0,-3.5507840494,0.,-5.5208444
 21\C,0,-2.9165458205,0.,4.6447995197\H,0,-3.5507840494,0.,5.520844421\
 Ni,0,-3.3400691493,0.,0.\N,0,-3.7483562054,2.0519090752,0.\N,0,-5.3302
 392913,0.,0.\C,0,-5.9724329894,1.1739597749,0.\N,0,-3.7483562054,-2.05
 19090752,0.\C,0,-5.0679289928,2.349482906,0.\C,0,-7.3654378619,1.20912
 52156,0.\H,0,-7.9032527599,2.1461330296,0.\C,0,-5.9724329894,-1.173959
 7749,0.\C,0,-5.5119269469,3.6676587122,0.\H,0,-6.5687217069,3.89394635
 31,0.\C,0,-4.5725986306,4.694419429,0.\H,0,-4.8975956335,5.7269013469,
 0.\C,0,-2.8502430401,3.0377845737,0.\H,0,-1.8098186464,2.7373090351,0.
 \C,0,-8.0557916065,0.,0.\H,0,-9.1380591162,0.,0.\C,0,-3.2188943752,4.3
 784455769,0.\H,0,-2.4593769677,5.1482979056,0.\C,0,-7.3654378619,-1.20
 91252156,0.\H,0,-7.9032527599,-2.1461330296,0.\C,0,-5.0679289928,-2.34
 9482906,0.\C,0,-5.5119269469,-3.6676587122,0.\H,0,-6.5687217069,-3.893
 9463531,0.\C,0,-2.8502430401,-3.0377845737,0.\H,0,-1.8098186464,-2.737
 3090351,0.\C,0,-3.2188943752,-4.3784455769,0.\H,0,-2.4593769677,-5.148
 2979056,0.\C,0,-4.5725986306,-4.694419429,0.\H,0,-4.8975956335,-5.7269
 013469,0.\\Version=ES64L-G16RevA.03\State=6-B1U\HF=-5752.5271086\S2=8.
 768784\S2-1=0.\S2A=8.750117\RMSD=7.293e-09\Dipole=0.,0.,0.\Quadrupole=
 135.7294347,-55.0861894,-80.6432453,0.,0.,0.\PG=D02H [C2(H1C1N1Ni1N1.N
 1Ni1N1C1H1),SG'(C28H20N4),SG"(C24H12N4)]\\@


 Money is a good servant but a bad master.
                        -- French Proverb
 Job cpu time:       0 days 14 hours 43 minutes 40.7 seconds.
 Elapsed time:       0 days  0 hours 36 minutes 59.0 seconds.
 File lengths (MBytes):  RWF=   2505 Int=      0 D2E=      0 Chk=    202 Scr=      1
 Normal termination of Gaussian 16 at Fri Aug 30 17:38:56 2024.
