 Entering Gaussian System, Link 0=g16
 Initial command:
 /opt/gaussian16/g16/l1.exe "/data/tmp/Gau-1333686.inp" -scrdir="/data/tmp/"
 Default is to use a total of  24 processors:
                               24 via shared-memory
                                1 via Linda
 Entering Link 1 = /opt/gaussian16/g16/l1.exe PID=   1333688.
  
 Copyright (c) 1988,1990,1992,1993,1995,1998,2003,2009,2016,
            Gaussian, Inc.  All Rights Reserved.
  
 This is part of the Gaussian(R) 16 program.  It is based on
 the Gaussian(R) 09 system (copyright 2009, Gaussian, Inc.),
 the Gaussian(R) 03 system (copyright 2003, Gaussian, Inc.),
 the Gaussian(R) 98 system (copyright 1998, Gaussian, Inc.),
 the Gaussian(R) 94 system (copyright 1995, Gaussian, Inc.),
 the Gaussian 92(TM) system (copyright 1992, Gaussian, Inc.),
 the Gaussian 90(TM) system (copyright 1990, Gaussian, Inc.),
 the Gaussian 88(TM) system (copyright 1988, Gaussian, Inc.),
 the Gaussian 86(TM) system (copyright 1986, Carnegie Mellon
 University), and the Gaussian 82(TM) system (copyright 1983,
 Carnegie Mellon University). Gaussian is a federally registered
 trademark of Gaussian, Inc.
  
 This software contains proprietary and confidential information,
 including trade secrets, belonging to Gaussian, Inc.
  
 This software is provided under written license and may be
 used, copied, transmitted, or stored only in accord with that
 written license.
  
 The following legend is applicable only to US Government
 contracts under FAR:
  
                    RESTRICTED RIGHTS LEGEND
  
 Use, reproduction and disclosure by the US Government is
 subject to restrictions as set forth in subparagraphs (a)
 and (c) of the Commercial Computer Software - Restricted
 Rights clause in FAR 52.227-19.
  
 Gaussian, Inc.
 340 Quinnipiac St., Bldg. 40, Wallingford CT 06492
  
  
 ---------------------------------------------------------------
 Warning -- This program may not be used in any manner that
 competes with the business of Gaussian, Inc. or will provide
 assistance to any competitor of Gaussian, Inc.  The licensee
 of this program is prohibited from giving any competitor of
 Gaussian, Inc. access to this program.  By using this program,
 the user acknowledges that Gaussian, Inc. is engaged in the
 business of creating and licensing software in the field of
 computational chemistry and represents and warrants to the
 licensee that it is not a competitor of Gaussian, Inc. and that
 it will not use this program in any manner prohibited above.
 ---------------------------------------------------------------
  

 Cite this work as:
 Gaussian 16, Revision A.03,
 M. J. Frisch, G. W. Trucks, H. B. Schlegel, G. E. Scuseria, 
 M. A. Robb, J. R. Cheeseman, G. Scalmani, V. Barone, 
 G. A. Petersson, H. Nakatsuji, X. Li, M. Caricato, A. V. Marenich, 
 J. Bloino, B. G. Janesko, R. Gomperts, B. Mennucci, H. P. Hratchian, 
 J. V. Ortiz, A. F. Izmaylov, J. L. Sonnenberg, D. Williams-Young, 
 F. Ding, F. Lipparini, F. Egidi, J. Goings, B. Peng, A. Petrone, 
 T. Henderson, D. Ranasinghe, V. G. Zakrzewski, J. Gao, N. Rega, 
 G. Zheng, W. Liang, M. Hada, M. Ehara, K. Toyota, R. Fukuda, 
 J. Hasegawa, M. Ishida, T. Nakajima, Y. Honda, O. Kitao, H. Nakai, 
 T. Vreven, K. Throssell, J. A. Montgomery, Jr., J. E. Peralta, 
 F. Ogliaro, M. J. Bearpark, J. J. Heyd, E. N. Brothers, K. N. Kudin, 
 V. N. Staroverov, T. A. Keith, R. Kobayashi, J. Normand, 
 K. Raghavachari, A. P. Rendell, J. C. Burant, S. S. Iyengar, 
 J. Tomasi, M. Cossi, J. M. Millam, M. Klene, C. Adamo, R. Cammi, 
 J. W. Ochterski, R. L. Martin, K. Morokuma, O. Farkas, 
 J. B. Foresman, and D. J. Fox, Gaussian, Inc., Wallingford CT, 2016.
 
 ******************************************
 Gaussian 16:  ES64L-G16RevA.03 25-Dec-2016
                31-Aug-2024 
 ******************************************
 %chk=ni1_symm_opt_sextet_b3lyp_dia_tpssh.chk
 ----------------------------------------------------------------------
 #p nmr tpssh/6-311g** int=grid=ultrafine scf=(xqc,maxcycle=500,IntRep)
  SCRF(CPCM, SOLVENT=ACETONITRILE)
 ----------------------------------------------------------------------
 1/38=1,172=1/1;
 2/12=2,17=6,18=5,40=1/2;
 3/5=4,6=6,7=101,11=2,25=1,30=1,70=2101,72=2,74=-35,75=-5/1,2,3,8;
 4//1;
 5/5=2,7=500,8=3,13=1,17=20,38=5,53=2/2,8;
 8/6=1,10=90,11=11/1;
 10/13=100,45=16/2;
 6/7=2,8=2,9=2,10=2,28=1/1;
 99/9=1/99;
 Leave Link    1 at Sat Aug 31 13:12:05 2024, MaxMem=           0 cpu:               0.9 elap:               0.0
 (Enter /opt/gaussian16/g16/l101.exe)
 ----------------------------------------------------------------------
 DFT TPSSh/6-311g** nmr calculation of {Ni}3+ cation optimised structur
 e with Ni-->Zn and charge 3+-->4+
 ----------------------------------------------------------------------
 Symbolic Z-matrix:
 Charge =  4 Multiplicity = 1
 Zn                   -3.34007   0.        0. 
 N                    -2.7793    2.25632   0. 
 N                    -3.74836   0.        2.05191 
 N                    -2.7793   -2.25632   0. 
 N                    -5.33024   0.        0. 
 C                     0.7321    3.61944   0. 
 C                    -0.69212  -1.15866   0. 
 N                    -1.39003   0.        0. 
 C                    -1.42376   2.38207   0. 
 C                    -5.97243   0.        1.17396 
 C                    -1.5375   -4.771     0. 
 H                    -1.0927   -5.75743   0. 
 C                    -0.7321    3.61944   0. 
 N                    -3.74836   0.       -2.05191 
 C                    -1.42376  -2.38207   0. 
 C                    -5.06793   0.        2.34948 
 C                    -7.36544   0.        1.20913 
 H                    -7.90325   0.        2.14613 
 C                    -5.97243   0.       -1.17396 
 C                    -5.51193   0.        3.66766 
 H                    -6.56872   0.        3.89395 
 C                    -4.5726    0.        4.69442 
 H                    -4.8976    0.        5.7269 
 C                    -2.85024   0.        3.03778 
 H                    -1.80982   0.        2.73731 
 C                    -1.5375    4.771     0. 
 H                    -1.0927    5.75743   0. 
 C                    -8.05579   0.        0. 
 H                    -9.13806   0.        0. 
 C                    -3.21889   0.        4.37845 
 H                    -2.45938   0.        5.1483 
 C                    -0.69212   1.15866   0. 
 C                    -3.50091   3.3691    0. 
 H                    -4.57827   3.2502    0. 
 C                    -7.36544   0.       -1.20913 
 H                    -7.90325   0.       -2.14613 
 C                    -3.50091  -3.3691    0. 
 H                    -4.57827  -3.2502    0. 
 C                    -5.06793   0.       -2.34948 
 C                    -2.91655   4.6448    0. 
 H                    -3.55078   5.52084   0. 
 C                    -2.91655  -4.6448    0. 
 H                    -3.55078  -5.52084   0. 
 C                    -5.51193   0.       -3.66766 
 H                    -6.56872   0.       -3.89395 
 C                    -2.85024   0.       -3.03778 
 H                    -1.80982   0.       -2.73731 
 C                    -3.21889   0.       -4.37845 
 H                    -2.45938   0.       -5.1483 
 C                    -4.5726    0.       -4.69442 
 H                    -4.8976    0.       -5.7269 
 N                     2.7793   -2.25632   0. 
 N                     2.7793    2.25632   0. 
 C                    -0.7321   -3.61944   0. 
 C                     0.69212   1.15866   0. 
 N                     1.39003   0.        0. 
 C                     1.42376  -2.38207   0. 
 C                     1.5375    4.771     0. 
 H                     1.0927    5.75743   0. 
 C                     0.7321   -3.61944   0. 
 C                     1.42376   2.38207   0. 
 C                     1.5375   -4.771     0. 
 H                     1.0927   -5.75743   0. 
 C                     0.69212  -1.15866   0. 
 C                     3.50091  -3.3691    0. 
 H                     4.57827  -3.2502    0. 
 C                     3.50091   3.3691    0. 
 H                     4.57827   3.2502    0. 
 C                     2.91655  -4.6448    0. 
 H                     3.55078  -5.52084   0. 
 C                     2.91655   4.6448    0. 
 H                     3.55078   5.52084   0. 
 Zn                    3.34007   0.        0. 
 N                     3.74836   0.        2.05191 
 N                     5.33024   0.        0. 
 C                     5.97243   0.        1.17396 
 N                     3.74836   0.       -2.05191 
 C                     5.06793   0.        2.34948 
 C                     7.36544   0.        1.20913 
 H                     7.90325   0.        2.14613 
 C                     5.97243   0.       -1.17396 
 C                     5.51193   0.        3.66766 
 H                     6.56872   0.        3.89395 
 C                     4.5726    0.        4.69442 
 H                     4.8976    0.        5.7269 
 C                     2.85024   0.        3.03778 
 H                     1.80982   0.        2.73731 
 C                     8.05579   0.        0. 
 H                     9.13806   0.        0. 
 C                     3.21889   0.        4.37845 
 H                     2.45938   0.        5.1483 
 C                     7.36544   0.       -1.20913 
 H                     7.90325   0.       -2.14613 
 C                     5.06793   0.       -2.34948 
 C                     5.51193   0.       -3.66766 
 H                     6.56872   0.       -3.89395 
 C                     2.85024   0.       -3.03778 
 H                     1.80982   0.       -2.73731 
 C                     3.21889   0.       -4.37845 
 H                     2.45938   0.       -5.1483 
 C                     4.5726    0.       -4.69442 
 H                     4.8976    0.       -5.7269 
 
 ITRead=  0  0  0  0  0  0  0  0  0  0  0  0  0  0  0  0  0  0  0  0
 ITRead=  0  0  0  0  0  0  0  0  0  0  0  0  0  0  0  0  0  0  0  0
 ITRead=  0  0  0  0  0  0  0  0  0  0  0  0  0  0  0  0  0  0  0  0
 ITRead=  0  0  0  0  0  0  0  0  0  0  0  0  0  0  0  0  0  0  0  0
 ITRead=  0  0  0  0  0  0  0  0  0  0  0  0  0  0  0  0  0  0  0  0
 ITRead=  0  0
 MicOpt= -1 -1 -1 -1 -1 -1 -1 -1 -1 -1 -1 -1 -1 -1 -1 -1 -1 -1 -1 -1
 MicOpt= -1 -1 -1 -1 -1 -1 -1 -1 -1 -1 -1 -1 -1 -1 -1 -1 -1 -1 -1 -1
 MicOpt= -1 -1 -1 -1 -1 -1 -1 -1 -1 -1 -1 -1 -1 -1 -1 -1 -1 -1 -1 -1
 MicOpt= -1 -1 -1 -1 -1 -1 -1 -1 -1 -1 -1 -1 -1 -1 -1 -1 -1 -1 -1 -1
 MicOpt= -1 -1 -1 -1 -1 -1 -1 -1 -1 -1 -1 -1 -1 -1 -1 -1 -1 -1 -1 -1
 MicOpt= -1 -1
 NAtoms=    102 NQM=      102 NQMF=       0 NMMI=      0 NMMIF=      0
                NMic=       0 NMicF=      0.
                    Isotopes and Nuclear Properties:
 (Nuclear quadrupole moments (NQMom) in fm**2, nuclear magnetic moments (NMagM)
  in nuclear magnetons)

  Atom         1           2           3           4           5           6           7           8           9          10
 IAtWgt=          64          14          14          14          14          12          12          14          12          12
 AtmWgt=  63.9291454  14.0030740  14.0030740  14.0030740  14.0030740  12.0000000  12.0000000  14.0030740  12.0000000  12.0000000
 NucSpn=           0           2           2           2           2           0           0           2           0           0
 AtZEff=  -0.0000000  -0.0000000  -0.0000000  -0.0000000  -0.0000000  -0.0000000  -0.0000000  -0.0000000  -0.0000000  -0.0000000
 NQMom=    0.0000000   2.0440000   2.0440000   2.0440000   2.0440000   0.0000000   0.0000000   2.0440000   0.0000000   0.0000000
 NMagM=    0.0000000   0.4037610   0.4037610   0.4037610   0.4037610   0.0000000   0.0000000   0.4037610   0.0000000   0.0000000
 AtZNuc=  30.0000000   7.0000000   7.0000000   7.0000000   7.0000000   6.0000000   6.0000000   7.0000000   6.0000000   6.0000000

  Atom        11          12          13          14          15          16          17          18          19          20
 IAtWgt=          12           1          12          14          12          12          12           1          12          12
 AtmWgt=  12.0000000   1.0078250  12.0000000  14.0030740  12.0000000  12.0000000  12.0000000   1.0078250  12.0000000  12.0000000
 NucSpn=           0           1           0           2           0           0           0           1           0           0
 AtZEff=  -0.0000000  -0.0000000  -0.0000000  -0.0000000  -0.0000000  -0.0000000  -0.0000000  -0.0000000  -0.0000000  -0.0000000
 NQMom=    0.0000000   0.0000000   0.0000000   2.0440000   0.0000000   0.0000000   0.0000000   0.0000000   0.0000000   0.0000000
 NMagM=    0.0000000   2.7928460   0.0000000   0.4037610   0.0000000   0.0000000   0.0000000   2.7928460   0.0000000   0.0000000
 AtZNuc=   6.0000000   1.0000000   6.0000000   7.0000000   6.0000000   6.0000000   6.0000000   1.0000000   6.0000000   6.0000000

  Atom        21          22          23          24          25          26          27          28          29          30
 IAtWgt=           1          12           1          12           1          12           1          12           1          12
 AtmWgt=   1.0078250  12.0000000   1.0078250  12.0000000   1.0078250  12.0000000   1.0078250  12.0000000   1.0078250  12.0000000
 NucSpn=           1           0           1           0           1           0           1           0           1           0
 AtZEff=  -0.0000000  -0.0000000  -0.0000000  -0.0000000  -0.0000000  -0.0000000  -0.0000000  -0.0000000  -0.0000000  -0.0000000
 NQMom=    0.0000000   0.0000000   0.0000000   0.0000000   0.0000000   0.0000000   0.0000000   0.0000000   0.0000000   0.0000000
 NMagM=    2.7928460   0.0000000   2.7928460   0.0000000   2.7928460   0.0000000   2.7928460   0.0000000   2.7928460   0.0000000
 AtZNuc=   1.0000000   6.0000000   1.0000000   6.0000000   1.0000000   6.0000000   1.0000000   6.0000000   1.0000000   6.0000000

  Atom        31          32          33          34          35          36          37          38          39          40
 IAtWgt=           1          12          12           1          12           1          12           1          12          12
 AtmWgt=   1.0078250  12.0000000  12.0000000   1.0078250  12.0000000   1.0078250  12.0000000   1.0078250  12.0000000  12.0000000
 NucSpn=           1           0           0           1           0           1           0           1           0           0
 AtZEff=  -0.0000000  -0.0000000  -0.0000000  -0.0000000  -0.0000000  -0.0000000  -0.0000000  -0.0000000  -0.0000000  -0.0000000
 NQMom=    0.0000000   0.0000000   0.0000000   0.0000000   0.0000000   0.0000000   0.0000000   0.0000000   0.0000000   0.0000000
 NMagM=    2.7928460   0.0000000   0.0000000   2.7928460   0.0000000   2.7928460   0.0000000   2.7928460   0.0000000   0.0000000
 AtZNuc=   1.0000000   6.0000000   6.0000000   1.0000000   6.0000000   1.0000000   6.0000000   1.0000000   6.0000000   6.0000000

  Atom        41          42          43          44          45          46          47          48          49          50
 IAtWgt=           1          12           1          12           1          12           1          12           1          12
 AtmWgt=   1.0078250  12.0000000   1.0078250  12.0000000   1.0078250  12.0000000   1.0078250  12.0000000   1.0078250  12.0000000
 NucSpn=           1           0           1           0           1           0           1           0           1           0
 AtZEff=  -0.0000000  -0.0000000  -0.0000000  -0.0000000  -0.0000000  -0.0000000  -0.0000000  -0.0000000  -0.0000000  -0.0000000
 NQMom=    0.0000000   0.0000000   0.0000000   0.0000000   0.0000000   0.0000000   0.0000000   0.0000000   0.0000000   0.0000000
 NMagM=    2.7928460   0.0000000   2.7928460   0.0000000   2.7928460   0.0000000   2.7928460   0.0000000   2.7928460   0.0000000
 AtZNuc=   1.0000000   6.0000000   1.0000000   6.0000000   1.0000000   6.0000000   1.0000000   6.0000000   1.0000000   6.0000000

  Atom        51          52          53          54          55          56          57          58          59          60
 IAtWgt=           1          14          14          12          12          14          12          12           1          12
 AtmWgt=   1.0078250  14.0030740  14.0030740  12.0000000  12.0000000  14.0030740  12.0000000  12.0000000   1.0078250  12.0000000
 NucSpn=           1           2           2           0           0           2           0           0           1           0
 AtZEff=  -0.0000000  -0.0000000  -0.0000000  -0.0000000  -0.0000000  -0.0000000  -0.0000000  -0.0000000  -0.0000000  -0.0000000
 NQMom=    0.0000000   2.0440000   2.0440000   0.0000000   0.0000000   2.0440000   0.0000000   0.0000000   0.0000000   0.0000000
 NMagM=    2.7928460   0.4037610   0.4037610   0.0000000   0.0000000   0.4037610   0.0000000   0.0000000   2.7928460   0.0000000
 AtZNuc=   1.0000000   7.0000000   7.0000000   6.0000000   6.0000000   7.0000000   6.0000000   6.0000000   1.0000000   6.0000000

  Atom        61          62          63          64          65          66          67          68          69          70
 IAtWgt=          12          12           1          12          12           1          12           1          12           1
 AtmWgt=  12.0000000  12.0000000   1.0078250  12.0000000  12.0000000   1.0078250  12.0000000   1.0078250  12.0000000   1.0078250
 NucSpn=           0           0           1           0           0           1           0           1           0           1
 AtZEff=  -0.0000000  -0.0000000  -0.0000000  -0.0000000  -0.0000000  -0.0000000  -0.0000000  -0.0000000  -0.0000000  -0.0000000
 NQMom=    0.0000000   0.0000000   0.0000000   0.0000000   0.0000000   0.0000000   0.0000000   0.0000000   0.0000000   0.0000000
 NMagM=    0.0000000   0.0000000   2.7928460   0.0000000   0.0000000   2.7928460   0.0000000   2.7928460   0.0000000   2.7928460
 AtZNuc=   6.0000000   6.0000000   1.0000000   6.0000000   6.0000000   1.0000000   6.0000000   1.0000000   6.0000000   1.0000000

  Atom        71          72          73          74          75          76          77          78          79          80
 IAtWgt=          12           1          64          14          14          12          14          12          12           1
 AtmWgt=  12.0000000   1.0078250  63.9291454  14.0030740  14.0030740  12.0000000  14.0030740  12.0000000  12.0000000   1.0078250
 NucSpn=           0           1           0           2           2           0           2           0           0           1
 AtZEff=  -0.0000000  -0.0000000  -0.0000000  -0.0000000  -0.0000000  -0.0000000  -0.0000000  -0.0000000  -0.0000000  -0.0000000
 NQMom=    0.0000000   0.0000000   0.0000000   2.0440000   2.0440000   0.0000000   2.0440000   0.0000000   0.0000000   0.0000000
 NMagM=    0.0000000   2.7928460   0.0000000   0.4037610   0.4037610   0.0000000   0.4037610   0.0000000   0.0000000   2.7928460
 AtZNuc=   6.0000000   1.0000000  30.0000000   7.0000000   7.0000000   6.0000000   7.0000000   6.0000000   6.0000000   1.0000000

  Atom        81          82          83          84          85          86          87          88          89          90
 IAtWgt=          12          12           1          12           1          12           1          12           1          12
 AtmWgt=  12.0000000  12.0000000   1.0078250  12.0000000   1.0078250  12.0000000   1.0078250  12.0000000   1.0078250  12.0000000
 NucSpn=           0           0           1           0           1           0           1           0           1           0
 AtZEff=  -0.0000000  -0.0000000  -0.0000000  -0.0000000  -0.0000000  -0.0000000  -0.0000000  -0.0000000  -0.0000000  -0.0000000
 NQMom=    0.0000000   0.0000000   0.0000000   0.0000000   0.0000000   0.0000000   0.0000000   0.0000000   0.0000000   0.0000000
 NMagM=    0.0000000   0.0000000   2.7928460   0.0000000   2.7928460   0.0000000   2.7928460   0.0000000   2.7928460   0.0000000
 AtZNuc=   6.0000000   6.0000000   1.0000000   6.0000000   1.0000000   6.0000000   1.0000000   6.0000000   1.0000000   6.0000000

  Atom        91          92          93          94          95          96          97          98          99         100
 IAtWgt=           1          12           1          12          12           1          12           1          12           1
 AtmWgt=   1.0078250  12.0000000   1.0078250  12.0000000  12.0000000   1.0078250  12.0000000   1.0078250  12.0000000   1.0078250
 NucSpn=           1           0           1           0           0           1           0           1           0           1
 AtZEff=  -0.0000000  -0.0000000  -0.0000000  -0.0000000  -0.0000000  -0.0000000  -0.0000000  -0.0000000  -0.0000000  -0.0000000
 NQMom=    0.0000000   0.0000000   0.0000000   0.0000000   0.0000000   0.0000000   0.0000000   0.0000000   0.0000000   0.0000000
 NMagM=    2.7928460   0.0000000   2.7928460   0.0000000   0.0000000   2.7928460   0.0000000   2.7928460   0.0000000   2.7928460
 AtZNuc=   1.0000000   6.0000000   1.0000000   6.0000000   6.0000000   1.0000000   6.0000000   1.0000000   6.0000000   1.0000000

  Atom       101         102
 IAtWgt=          12           1
 AtmWgt=  12.0000000   1.0078250
 NucSpn=           0           1
 AtZEff=  -0.0000000  -0.0000000
 NQMom=    0.0000000   0.0000000
 NMagM=    0.0000000   2.7928460
 AtZNuc=   6.0000000   1.0000000
 Leave Link  101 at Sat Aug 31 13:12:05 2024, MaxMem= 11953766400 cpu:               4.3 elap:               0.2
 (Enter /opt/gaussian16/g16/l202.exe)
 Stoichiometry    C54H34N12Zn2(4+)
 Framework group  D2H[C2(HCNZnN.NZnNCH),SG'(C28H20N4),SG"(C24H12N4)]
 Deg. of freedom    51
 Full point group                 D2H     NOp   8
 Largest Abelian subgroup         D2H     NOp   8
 Largest concise Abelian subgroup D2H     NOp   8
                         Standard orientation:                         
 ---------------------------------------------------------------------
 Center     Atomic      Atomic             Coordinates (Angstroms)
 Number     Number       Type             X           Y           Z
 ---------------------------------------------------------------------
      1         30           0       -3.340069    0.000000    0.000000
      2          7           0       -2.779297    2.256317    0.000000
      3          7           0       -3.748356    0.000000    2.051909
      4          7           0       -2.779297   -2.256317   -0.000000
      5          7           0       -5.330239    0.000000    0.000000
      6          6           0        0.732100    3.619438    0.000000
      7          6           0       -0.692120   -1.158664    0.000000
      8          7           0       -1.390034    0.000000    0.000000
      9          6           0       -1.423763    2.382066    0.000000
     10          6           0       -5.972433    0.000000    1.173960
     11          6           0       -1.537504   -4.771003    0.000000
     12          1           0       -1.092704   -5.757434    0.000000
     13          6           0       -0.732100    3.619438   -0.000000
     14          7           0       -3.748356    0.000000   -2.051909
     15          6           0       -1.423763   -2.382066   -0.000000
     16          6           0       -5.067929    0.000000    2.349483
     17          6           0       -7.365438    0.000000    1.209125
     18          1           0       -7.903253    0.000000    2.146133
     19          6           0       -5.972433    0.000000   -1.173960
     20          6           0       -5.511927    0.000000    3.667659
     21          1           0       -6.568722    0.000000    3.893946
     22          6           0       -4.572599    0.000000    4.694419
     23          1           0       -4.897596    0.000000    5.726901
     24          6           0       -2.850243    0.000000    3.037785
     25          1           0       -1.809819    0.000000    2.737309
     26          6           0       -1.537504    4.771003    0.000000
     27          1           0       -1.092704    5.757434    0.000000
     28          6           0       -8.055792    0.000000    0.000000
     29          1           0       -9.138059    0.000000    0.000000
     30          6           0       -3.218894    0.000000    4.378446
     31          1           0       -2.459377    0.000000    5.148298
     32          6           0       -0.692120    1.158664    0.000000
     33          6           0       -3.500910    3.369098    0.000000
     34          1           0       -4.578273    3.250200    0.000000
     35          6           0       -7.365438    0.000000   -1.209125
     36          1           0       -7.903253    0.000000   -2.146133
     37          6           0       -3.500910   -3.369098   -0.000000
     38          1           0       -4.578273   -3.250200   -0.000000
     39          6           0       -5.067929    0.000000   -2.349483
     40          6           0       -2.916546    4.644800    0.000000
     41          1           0       -3.550784    5.520844    0.000000
     42          6           0       -2.916546   -4.644800   -0.000000
     43          1           0       -3.550784   -5.520844   -0.000000
     44          6           0       -5.511927    0.000000   -3.667659
     45          1           0       -6.568722    0.000000   -3.893946
     46          6           0       -2.850243    0.000000   -3.037785
     47          1           0       -1.809819    0.000000   -2.737309
     48          6           0       -3.218894    0.000000   -4.378446
     49          1           0       -2.459377    0.000000   -5.148298
     50          6           0       -4.572599    0.000000   -4.694419
     51          1           0       -4.897596    0.000000   -5.726901
     52          7           0        2.779297   -2.256317    0.000000
     53          7           0        2.779297    2.256317    0.000000
     54          6           0       -0.732100   -3.619438    0.000000
     55          6           0        0.692120    1.158664    0.000000
     56          7           0        1.390034   -0.000000    0.000000
     57          6           0        1.423763   -2.382066    0.000000
     58          6           0        1.537504    4.771003    0.000000
     59          1           0        1.092704    5.757434    0.000000
     60          6           0        0.732100   -3.619438   -0.000000
     61          6           0        1.423763    2.382066    0.000000
     62          6           0        1.537504   -4.771003    0.000000
     63          1           0        1.092704   -5.757434    0.000000
     64          6           0        0.692120   -1.158664    0.000000
     65          6           0        3.500910   -3.369098    0.000000
     66          1           0        4.578273   -3.250200    0.000000
     67          6           0        3.500910    3.369098    0.000000
     68          1           0        4.578273    3.250200    0.000000
     69          6           0        2.916546   -4.644800    0.000000
     70          1           0        3.550784   -5.520844    0.000000
     71          6           0        2.916546    4.644800    0.000000
     72          1           0        3.550784    5.520844    0.000000
     73         30           0        3.340069   -0.000000    0.000000
     74          7           0        3.748356   -0.000000    2.051909
     75          7           0        5.330239   -0.000000    0.000000
     76          6           0        5.972433   -0.000000    1.173960
     77          7           0        3.748356    0.000000   -2.051909
     78          6           0        5.067929   -0.000000    2.349483
     79          6           0        7.365438   -0.000000    1.209125
     80          1           0        7.903253   -0.000000    2.146133
     81          6           0        5.972433    0.000000   -1.173960
     82          6           0        5.511927   -0.000000    3.667659
     83          1           0        6.568722   -0.000000    3.893946
     84          6           0        4.572599   -0.000000    4.694419
     85          1           0        4.897596   -0.000000    5.726901
     86          6           0        2.850243   -0.000000    3.037785
     87          1           0        1.809819   -0.000000    2.737309
     88          6           0        8.055792   -0.000000    0.000000
     89          1           0        9.138059   -0.000000    0.000000
     90          6           0        3.218894   -0.000000    4.378446
     91          1           0        2.459377   -0.000000    5.148298
     92          6           0        7.365438    0.000000   -1.209125
     93          1           0        7.903253    0.000000   -2.146133
     94          6           0        5.067929    0.000000   -2.349483
     95          6           0        5.511927    0.000000   -3.667659
     96          1           0        6.568722    0.000000   -3.893946
     97          6           0        2.850243    0.000000   -3.037785
     98          1           0        1.809819    0.000000   -2.737309
     99          6           0        3.218894    0.000000   -4.378446
    100          1           0        2.459377    0.000000   -5.148298
    101          6           0        4.572599    0.000000   -4.694419
    102          1           0        4.897596    0.000000   -5.726901
 ---------------------------------------------------------------------
 Rotational constants (GHZ):           0.0610687           0.0251072           0.0248968
 Leave Link  202 at Sat Aug 31 13:12:05 2024, MaxMem= 11953766400 cpu:               0.1 elap:               0.0
 (Enter /opt/gaussian16/g16/l301.exe)
 Standard basis: 6-311G(d,p) (5D, 7F)
 Ernie: Thresh=  0.10000D-02 Tol=  0.10000D-05 Strict=F.
 There are   310 symmetry adapted cartesian basis functions of AG  symmetry.
 There are   182 symmetry adapted cartesian basis functions of B1G symmetry.
 There are   199 symmetry adapted cartesian basis functions of B2G symmetry.
 There are    90 symmetry adapted cartesian basis functions of B3G symmetry.
 There are    90 symmetry adapted cartesian basis functions of AU  symmetry.
 There are   199 symmetry adapted cartesian basis functions of B1U symmetry.
 There are   182 symmetry adapted cartesian basis functions of B2U symmetry.
 There are   310 symmetry adapted cartesian basis functions of B3U symmetry.
 There are   288 symmetry adapted basis functions of AG  symmetry.
 There are   174 symmetry adapted basis functions of B1G symmetry.
 There are   190 symmetry adapted basis functions of B2G symmetry.
 There are    90 symmetry adapted basis functions of B3G symmetry.
 There are    90 symmetry adapted basis functions of AU  symmetry.
 There are   190 symmetry adapted basis functions of B1U symmetry.
 There are   174 symmetry adapted basis functions of B2U symmetry.
 There are   288 symmetry adapted basis functions of B3U symmetry.
  1484 basis functions,  2546 primitive gaussians,  1562 cartesian basis functions
   249 alpha electrons      249 beta electrons
       nuclear repulsion energy     12773.1676602636 Hartrees.
 IExCor= 2523 DFT=T Ex+Corr=TPSSh ExCW=0 ScaHFX=  0.100000
 ScaDFX=  0.900000  0.900000  1.000000  1.000000 ScalE2=  1.000000  1.000000
 IRadAn=      5 IRanWt=     -1 IRanGd=            0 ICorTp=0 IEmpDi=  4
 NAtoms=  102 NActive=  102 NUniq=   28 SFac= 4.00D+00 NAtFMM=   60 NAOKFM=T Big=F
 Integral buffers will be    131072 words long.
 Raffenetti 2 integral format.
 Two-electron integral symmetry is turned on.
 ------------------------------------------------------------------------------
 Polarizable Continuum Model (PCM)
 =================================
 Model                : C-PCM.
 Atomic radii         : UFF (Universal Force Field).
 Polarization charges : Total charges.
 Charge compensation  : None.
 Solution method      : On-the-fly selection.
 Cavity type          : Scaled VdW (van der Waals Surface) (Alpha=1.100).
 Cavity algorithm     : GePol (No added spheres)
                        Default sphere list used, NSphG=  102.
                        Lebedev-Laikov grids with approx.  5.0 points / Ang**2.
                        Smoothing algorithm: York/Karplus (Gamma=1.0000).
                        Polarization charges: spherical gaussians, with
                                              point-specific exponents (IZeta= 3).
                        Self-potential: point-specific (ISelfS= 7).
                        Self-field    : sphere-specific E.n sum rule (ISelfD= 2).
 Solvent              : Acetonitrile, Eps=  35.688000 Eps(inf)=   1.806874
 ------------------------------------------------------------------------------
 GePol: Number of generator spheres                  =     102
 GePol: Total number of spheres                      =     102
 GePol: Number of exposed spheres                    =     100 ( 98.04%)
 GePol: Number of points                             =    7262
 GePol: Average weight of points                     =       0.12
 GePol: Minimum weight of points                     =   0.38D-11
 GePol: Maximum weight of points                     =    0.20577
 GePol: Number of points with low weight             =     632
 GePol: Fraction of low-weight points (<1% of avg)   =       8.70%
 GePol: Cavity surface area                          =    879.249 Ang**2
 GePol: Cavity volume                                =   1100.733 Ang**3
 Leave Link  301 at Sat Aug 31 13:12:05 2024, MaxMem= 11953766400 cpu:               1.1 elap:               0.0
 (Enter /opt/gaussian16/g16/l302.exe)
 NPDir=0 NMtPBC=     1 NCelOv=     1 NCel=       1 NClECP=     1 NCelD=      1
         NCelK=      1 NCelE2=     1 NClLst=     1 CellRange=     0.0.
 One-electron integrals computed using PRISM.
 One-electron integral symmetry used in STVInt
 NBasis=  1484 RedAO= T EigKep=  5.44D-05  NBF=   288   174   190    90    90   190   174   288
 NBsUse=  1484 1.00D-06 EigRej= -1.00D+00 NBFU=   288   174   190    90    90   190   174   288
 Precomputing XC quadrature grid using
 IXCGrd= 4 IRadAn=           5 IRanWt=          -1 IRanGd=           0 AccXCQ= 0.00D+00.
 Generated NRdTot=       0 NPtTot=           0 NUsed=           0 NTot=          32
 NSgBfM=  1411  1396  1396  1404  1411 MxSgAt=   102 MxSgA2=   102.
 Leave Link  302 at Sat Aug 31 13:12:08 2024, MaxMem= 11953766400 cpu:              65.9 elap:               2.7
 (Enter /opt/gaussian16/g16/l303.exe)
 DipDrv:  MaxL=1.
 Leave Link  303 at Sat Aug 31 13:12:08 2024, MaxMem= 11953766400 cpu:               6.7 elap:               0.3
 (Enter /opt/gaussian16/g16/l308.exe)
 Leave Link  308 at Sat Aug 31 13:12:09 2024, MaxMem= 11953766400 cpu:              12.3 elap:               0.6
 (Enter /opt/gaussian16/g16/l401.exe)
 ExpMin= 5.11D-02 ExpMax= 3.16D+05 ExpMxC= 1.12D+04 IAcc=3 IRadAn=         5 AccDes= 0.00D+00
 Harris functional with IExCor= 1009 and IRadAn=       5 diagonalized for initial guess.
 HarFok:  IExCor= 1009 AccDes= 0.00D+00 IRadAn=         5 IDoV= 1 UseB2=F ITyADJ=14
 ICtDFT=  3500011 ScaDFX=  1.000000  1.000000  1.000000  1.000000
 FoFCou: FMM=F IPFlag=           0 FMFlag=      100000 FMFlg1=        2000
         NFxFlg=           0 DoJE=T BraDBF=F KetDBF=T FulRan=T
         wScrn=  0.000000 ICntrl=       500 IOpCl=  0 I1Cent=   200000004 NGrid=           0
         NMat0=    1 NMatS0=      1 NMatT0=    0 NMatD0=    1 NMtDS0=    0 NMtDT0=    0
 Petite list used in FoFCou.
 Harris En= -6290.39942786006    
 JPrj=0 DoOrth=F DoCkMO=F.
 Initial guess orbital symmetries:
       Occupied  (B3U) (AG) (B3U) (AG) (B3U) (AG) (B2G) (B1U) (B1G)
                 (B2U) (B3U) (AG) (B3U) (AG) (B2G) (B1U) (B3U)
                 (AG) (B1G) (B3U) (B2U) (AG) (B2G) (B1U) (B3U)
                 (AG) (B3U) (AG) (B3U) (B2G) (AG) (B1U) (B3U) (B2G)
                 (B1U) (AG) (B1G) (B3U) (B2U) (AG) (B2G) (B1U)
                 (B3U) (AG) (B3U) (B1G) (AG) (B2U) (B2G) (B3U)
                 (AG) (B1U) (B3U) (B1G) (AG) (B2U) (B2U) (AG) (B1G)
                 (B3U) (AG) (B2U) (B3U) (B1G) (B3U) (AG) (B2G)
                 (B1U) (B1G) (B3U) (B2U) (AG) (B2G) (B3U) (AG)
                 (B1U) (B3U) (AG) (B3U) (AG) (B2G) (B1U) (B1G)
                 (B2U) (AG) (B3U) (AG) (B2G) (B1U) (B3U) (B2U)
                 (B1G) (AG) (B3U) (AG) (B3U) (B2U) (AG) (B2U) (B3U)
                 (AG) (B2G) (B1U) (B3U) (AG) (B1G) (B1U) (B2G)
                 (B3U) (AG) (AG) (B3U) (B1G) (B1U) (B2G) (B3U)
                 (B2U) (AG) (B1G) (B1U) (B2G) (B2U) (AG) (B3U)
                 (AG) (AG) (B3U) (B1U) (B2G) (B3U) (B2U) (AG) (B3U)
                 (AG) (B1G) (B3U) (B1U) (B2G) (B1G) (AG) (B2U)
                 (B3U) (AG) (B2U) (B1U) (B2G) (B3U) (B1U) (B2G)
                 (AG) (AG) (B3U) (AG) (B3U) (AG) (B1G) (B2U) (B1U)
                 (B2G) (B3U) (B1G) (AG) (B3U) (B2U) (B1U) (B3U)
                 (B2G) (B3U) (AG) (B1U) (AG) (B2G) (B3U) (AG) (B1U)
                 (B2U) (B1G) (B2U) (B1G) (AG) (B2G) (B3U) (AG)
                 (B1U) (B3U) (B2U) (B3G) (B1G) (AU) (B3U) (B3G)
                 (B2G) (AG) (B1U) (B3U) (B2G) (AG) (B3U) (AU) (B1U)
                 (B1G) (B2U) (B2U) (B1G) (B2G) (B1U) (AG) (B3U)
                 (AG) (B2G) (B3U) (AG) (B3U) (B1U) (B2G) (AG) (B3G)
                 (B3G) (B2U) (B1U) (B1G) (B1G) (B2U) (AU) (B3G)
                 (AU) (B3G) (B2U) (B1G) (AU) (B1U) (B2G) (B2U)
                 (B1G) (B2G) (B1U) (B3G) (AU) (B2U) (B1G) (AU)
                 (B3G) (AU) (B3G) (B2G) (AG) (B3U) (B3U) (AG)
       Virtual   (B1U) (B2U) (B1G) (AU) (B3G) (AU) (B1U) (B3G)
                 (B2G) (B3G) (AU) (B2U) (B1G) (B3G) (B1G) (B2U)
                 (AU) (B1U) (B2G) (B3G) (AU) (AU) (AG) (B2U) (B1G)
                 (B3U) (B2G) (B1U) (B3G) (AG) (B1U) (AG) (B2U)
                 (B2G) (B3U) (B1G) (B3U) (B1U) (AG) (AU) (B3G)
                 (AG) (AG) (B2G) (B3U) (B2U) (B1U) (AG) (B3U) (B1G)
                 (B2U) (B3U) (AG) (B2U) (B1G) (B3U) (AG) (B1U)
                 (B2G) (AU) (B3U) (B2U) (AG) (B2G) (B1U) (B1G)
                 (B3U) (B2G) (AG) (B1G) (B2G) (B3U) (B1U) (B2G)
                 (B3U) (AG) (B2U) (AG) (B3U) (AG) (AG) (B1U) (B2U)
                 (B2G) (B3U) (B3U) (B1G) (AG) (B1U) (B2G) (B3U)
                 (B1U) (AG) (B2U) (B3U) (B3U) (AG) (B2G) (AG) (B1G)
                 (B3U) (B1U) (AG) (AG) (B1G) (B2G) (B2U) (B3U)
                 (AG) (B3U) (AG) (B1G) (B2G) (B2U) (B1U) (B3U)
                 (B3U) (B1G) (B1U) (B3U) (B2G) (B2U) (B3U) (AG)
                 (AG) (B1U) (B3U) (B2G) (AG) (B1G) (B3U) (B1U)
                 (B1G) (B2G) (B3G) (AG) (AU) (AG) (B3U) (B1U) (B2U)
                 (B2G) (B3U) (AG) (B1G) (AG) (B1U) (B2U) (B3U)
                 (B2G) (B1U) (B2U) (B1U) (AG) (B1G) (B3G) (B2G)
                 (B3U) (B2U) (B2G) (B1U) (AG) (B3U) (B3U) (B2U)
                 (B1G) (AU) (AG) (B3U) (B3G) (AG) (B2G) (B1G) (B2U)
                 (B1U) (B1G) (B3U) (AG) (B2G) (B2U) (AU) (B3U)
                 (B3G) (AG) (B1U) (B2U) (AG) (AU) (B3G) (B1U) (B3U)
                 (B1G) (AG) (B2G) (B1U) (B2G) (B1G) (B2U) (B3U)
                 (AG) (B3U) (AG) (B2U) (B1U) (B1G) (AU) (B3U) (B3G)
                 (AG) (B2U) (B1U) (B2G) (B2U) (B3G) (AU) (B2G)
                 (B1G) (AG) (B1U) (B3G) (B1G) (B3U) (AG) (B1G)
                 (B2U) (B1U) (B2G) (B1G) (B2U) (AU) (B3U) (B1U)
                 (AU) (B3U) (B3G) (AG) (B2G) (AG) (AU) (B3U) (B1U)
                 (B2G) (B2U) (B3U) (AG) (B3G) (B2G) (AG) (B3U)
                 (B1U) (AG) (B2U) (B1G) (B1U) (B2G) (B1G) (B2U)
                 (B3U) (AG) (B1G) (B3U) (AG) (B2G) (B2U) (B1U)
                 (B1G) (AU) (B3U) (AG) (B3G) (B1G) (B3U) (B2G)
                 (B2U) (B3G) (B1U) (B3U) (AU) (AG) (B3U) (B1U)
                 (B2U) (AG) (B2G) (AU) (B1G) (B1U) (B1G) (B3U)
                 (AG) (B3U) (B3G) (AG) (B3G) (B2G) (AU) (B3U) (AG)
                 (B3U) (B2G) (B1U) (B2G) (B1G) (B3U) (B1U) (AG)
                 (B2U) (B1G) (B3U) (AG) (B2G) (B2U) (B3U) (B1G)
                 (B2G) (B1U) (B2U) (AG) (B3U) (AG) (B1U) (B1U)
                 (B2G) (B2G) (AG) (AG) (B3U) (B3U) (B2U) (AU) (B3U)
                 (B1G) (AG) (B2G) (B2U) (B1U) (AG) (B3U) (AG) (B1U)
                 (B2U) (B3U) (B1G) (B3U) (B1G) (AG) (B1G) (B2G)
                 (B2U) (B2G) (B1U) (AG) (B1U) (B3U) (AG) (B3U)
                 (B2U) (B3G) (B1G) (B1U) (B3U) (AG) (B2G) (B1U)
                 (AG) (B2U) (B1G) (B3U) (AU) (AG) (B3U) (B2G) (B3G)
                 (AG) (B1U) (B2G) (B3G) (AU) (B3U) (B3G) (B1G)
                 (B1U) (AG) (B2G) (B2U) (AU) (B3G) (B2G) (B2U)
                 (B1G) (B1U) (B3U) (B1G) (AU) (B2G) (B3U) (B2U)
                 (AU) (B3G) (B1U) (B1G) (AU) (B3U) (AG) (B2G) (B2U)
                 (B3U) (B3G) (AG) (B1U) (B1G) (B2G) (B3G) (AU)
                 (B1U) (B2U) (B3G) (AG) (B2U) (B1G) (AG) (B3U)
                 (B2G) (B1U) (B2U) (B3U) (B3G) (AU) (B3G) (B1G)
                 (B1U) (B2G) (AG) (B2U) (AG) (B2G) (B3U) (AU) (B3U)
                 (AG) (AU) (B3G) (B1U) (B2U) (AG) (B3U) (B1G) (AU)
                 (B3G) (AU) (B3G) (B3U) (B2U) (AG) (B1G) (B1U)
                 (AG) (B2G) (B2G) (B3U) (B3G) (B3U) (AG) (AU) (B1G)
                 (B1U) (B2G) (B3U) (B2U) (B2U) (B1G) (B1U) (B1G)
                 (AG) (B1U) (B2U) (B2G) (B1G) (B3U) (AG) (B2G)
                 (B3U) (B1U) (AG) (B2U) (B3G) (AU) (B1G) (B3U)
                 (AG) (B3U) (B2G) (B1U) (AG) (B1G) (B2G) (B1U)
                 (B2U) (AG) (B2U) (B3U) (B3U) (AG) (B2U) (B1U)
                 (B2G) (B1G) (AG) (B3U) (AU) (B2G) (AG) (B2U) (B3U)
                 (B1U) (AG) (B2G) (B1G) (B3U) (AG) (B3U) (B1G)
                 (B2G) (B1U) (AG) (B3U) (B1U) (B2G) (AG) (B3U)
                 (AG) (B3U) (B1G) (B2U) (B3G) (AU) (B2U) (B1G)
                 (AG) (B2U) (B3G) (B1U) (B1G) (AU) (B2U) (B3G)
                 (B3U) (B3G) (B1U) (AU) (AG) (B1G) (B2G) (B1G)
                 (B2U) (B1U) (B3U) (B2G) (AU) (B3G) (AG) (B2U)
                 (B3U) (B1U) (AG) (B2G) (B3U) (AG) (B1G) (B2U)
                 (AU) (B1U) (B3U) (AG) (B2G) (B1G) (B2U) (B1U)
                 (B2U) (AG) (B2G) (B3U) (B3U) (B2G) (B3G) (AU)
                 (B1U) (AG) (B3U) (B1G) (B3U) (AG) (B1U) (B3G)
                 (B2U) (B2G) (B1G) (B3U) (B3G) (B1U) (AU) (B2G)
                 (AG) (AU) (B1G) (B3U) (AG) (B2U) (B3U) (B2G) (B1G)
                 (B1U) (B3G) (AU) (B3G) (AG) (B2U) (B1G) (AU) (B1U)
                 (B2G) (B2G) (B3U) (B2U) (B3G) (B1G) (AG) (B2U)
                 (AU) (B3U) (B2U) (B1U) (B2U) (AG) (B2G) (B1G)
                 (B3U) (AG) (B1G) (AG) (B1U) (B2G) (B3U) (B3G)
                 (B2G) (B3U) (AG) (B1U) (AU) (AG) (B1G) (B2U) (B3U)
                 (B1U) (B1G) (B2G) (B2U) (B1U) (B3U) (B1G) (B3G)
                 (AU) (AG) (B2G) (B3U) (B1U) (AG) (B3U) (B3G) (B3U)
                 (B1U) (AG) (B2G) (B2U) (AG) (B1G) (B3U) (B1U)
                 (B2G) (B1G) (B2U) (B1U) (B2G) (AG) (B3U) (AG)
                 (B1G) (B2U) (AU) (B3G) (AU) (B1U) (B3U) (AG) (B2G)
                 (B2G) (B1U) (B2U) (B3G) (B1U) (B3G) (AU) (B3U)
                 (B1G) (B2U) (AG) (B2G) (AU) (B3G) (B1G) (B3U)
                 (AG) (B2U) (B1G) (B2U) (B2G) (AU) (B3U) (B3U)
                 (B2G) (AG) (B1U) (B3G) (B1G) (B3G) (AU) (B2U)
                 (B1U) (B2G) (B2U) (B1G) (AU) (B3G) (AU) (AG) (B2U)
                 (AG) (B3U) (B1U) (B1G) (AG) (B2U) (B2G) (AG) (B3U)
                 (AG) (B1U) (B2U) (AU) (B3U) (B2G) (AG) (B3U) (B2G)
                 (B3G) (B3U) (B1U) (B1G) (B1U) (B2U) (B3U) (AG)
                 (B1G) (B2G) (B1U) (B1G) (AG) (B2G) (B3U) (B2G)
                 (B2U) (AG) (B2U) (B3U) (B1G) (B1U) (B2G) (AG)
                 (B3U) (AU) (B3G) (B3G) (AG) (B3U) (B1U) (B1G)
                 (AG) (B3U) (B1G) (B1U) (B2G) (AG) (B3U) (AU) (B2U)
                 (B1G) (AG) (B3G) (AU) (B1U) (B2G) (B3U) (B2U)
                 (B3U) (AG) (B3U) (AU) (B3G) (B2G) (B1G) (B1U)
                 (B1U) (B3G) (B2G) (B3U) (B2U) (B1G) (B1U) (AU)
                 (B3G) (B1G) (AG) (B2U) (B3U) (B1U) (B1G) (AG)
                 (B2U) (B2G) (B2U) (B1G) (B3U) (AG) (AU) (B3G)
                 (B2G) (AU) (B2G) (B1U) (AG) (B2U) (B3U) (AG) (B2U)
                 (B2G) (AG) (B3U) (B1G) (B1U) (AG) (B3G) (B1U)
                 (B2G) (B1G) (B3U) (AG) (AG) (B3U) (B2U) (AU) (B3G)
                 (B3U) (AG) (B2G) (B3U) (B1U) (AG) (B1G) (AG) (B1U)
                 (B2G) (B2U) (B3G) (AU) (B3U) (AG) (B3U) (B2U)
                 (B1G) (B1U) (AG) (AU) (B3U) (AG) (B3U) (B3G) (B2U)
                 (B1G) (B1U) (B3U) (B1U) (B2U) (B2G) (B1G) (AG)
                 (B2G) (AU) (B1U) (B1G) (B3G) (B3U) (B2G) (AG)
                 (AU) (B2G) (B3U) (B1U) (B3G) (B2U) (AU) (AG) (B1G)
                 (B2G) (B3U) (B1U) (B3U) (B3G) (AG) (B1G) (B2U)
                 (B2G) (B3U) (AU) (B1U) (B2G) (B1G) (AG) (B1U)
                 (B3U) (AU) (B2U) (AG) (B2U) (B3U) (B2G) (B1G)
                 (AG) (B3U) (B1U) (B1G) (B2G) (B3G) (B1U) (AG)
                 (AU) (B2G) (B2U) (B1G) (B3U) (B2U) (B3G) (B1U)
                 (B3U) (B1G) (B3G) (AU) (B1G) (B3G) (AU) (B2G)
                 (B2U) (AG) (AG) (B3U) (AU) (B1U) (B2G) (AG) (B2U)
                 (B2G) (B3U) (B2U) (AG) (AG) (B1U) (AG) (B2G) (B1U)
                 (B2G) (B3U) (B1U) (B2G) (B3U) (B1G) (B2U) (AG)
                 (B3U) (B3U) (B2U) (AG) (B1U) (B1G) (B3U) (B2G)
                 (AG) (B3U) (B1G) (B2U) (AG) (B3U) (B1U) (B2G)
                 (B2U) (B3U) (AG) (B1G) (B3U) (AG) (B1U) (B2G)
                 (AG) (B3U) (B1G) (B3U) (B1U) (B2U) (AG) (B2G)
                 (AG) (B3U) (AG) (B3U) (AG) (B1G) (B3U) (B1U) (B2G)
                 (B1G) (AG) (B3U) (B2U) (AG) (B3U) (B3U) (AG) (B2U)
                 (B1U) (B1G) (AG) (B2G) (B3G) (AU) (B3U) (B2U)
                 (B1G) (B1U) (B2G) (B1U) (AG) (B3U) (B2G) (B1U)
                 (B2U) (B1G) (AG) (B2U) (B3U) (AG) (B1U) (B2G)
                 (B3G) (B1G) (AU) (B3U) (B2G) (B1G) (B2U) (AG)
                 (B1U) (B3U) (AG) (B2G) (B1G) (B3U) (AG) (B3U)
                 (AG) (B3U) (B1U) (B2G) (AG) (B2U) (B3U) (B1U)
                 (B2G) (B1G) (B3U) (AG) (B3U) (AG) (B1U) (B2G)
                 (B2U) (B3U) (AG) (B2U) (B3U) (AG) (B1G) (B1U)
                 (B2G) (B3G) (AU) (AG) (B2U) (B3U) (B1G) (B1U)
                 (B2G) (AG) (B1U) (B3U) (B2G) (AG) (B3U) (AG) (B3U)
                 (B1G) (B3U) (B2U) (AG) (B1G) (B3U) (B1U) (B2G)
                 (AG) (B3U) (B1G) (B3U) (B2U) (B1U) (B2G) (AG)
                 (B1G) (AG) (B3U) (B3U) (B2U) (B1U) (B2G) (B1G)
                 (B3G) (AU) (B2U) (B1G) (B1U) (B2G) (AG) (B3U)
                 (AG) (B3U) (B2U) (B1G) (B1U) (B2G) (AG) (B3U)
                 (AG) (B2U) (AG) (B3U) (B1U) (B2G) (B3U) (B1G)
                 (AG) (B3U) (B2U) (AG) (B1U) (B2G) (AG) (B3U) (B1U)
                 (B2G) (B1G) (AG) (B3U) (B2U) (AG) (B3U) (B2U)
                 (B1U) (B2G) (B3U) (AG) (B3U) (B1G) (AG) (B2U)
                 (AG) (B3U) (B1G) (B1U) (B2G) (AG) (B3U) (B1U)
                 (B2G) (B2U) (AG) (B1G) (B3U) (AG) (B3U) (B1U)
                 (B2G) (AG) (B3U) (B1G) (B3U) (AG) (B3U) (AG) (B3U)
                 (AG) (B1U) (B2G) (B2U) (B1G) (B3U) (AG) (AG) (B3U)
                 (B3U) (B2U) (B1G) (B1U) (B2G) (AG) (B3U) (AG)
                 (B3U) (AG) (B3U)
 The electronic state of the initial guess is 1-AG.
 Leave Link  401 at Sat Aug 31 13:12:13 2024, MaxMem= 11953766400 cpu:              90.9 elap:               3.8
 (Enter /opt/gaussian16/g16/l502.exe)
 Two-electron integrals replicated using symmetry.
 Closed shell SCF:
 Using DIIS extrapolation, IDIIS=  1040.
 NGot= 11953766400 LenX= 11948809668 LenY= 11946368262
 Requested convergence on RMS density matrix=1.00D-08 within 128 cycles.
 Requested convergence on MAX density matrix=1.00D-06.
 Requested convergence on             energy=1.00D-06.
 No special actions if energy rises.
 Fock matrices will be formed incrementally for  20 cycles.

 Cycle   1  Pass 1  IDiag  1:
 FoFJK:  IHMeth= 1 ICntrl=       0 DoSepK=F KAlg= 0 I1Cent=           0 FoldK=F
 IRaf= 510000000 NMat=       1 IRICut=       1 DoRegI=T DoRafI=F ISym2E= 2 IDoP0=0 IntGTp=1.
 FoFCou: FMM=T IPFlag=           0 FMFlag=      100000 FMFlg1=        2000
         NFxFlg=           0 DoJE=F BraDBF=F KetDBF=F FulRan=T
         wScrn=  0.000000 ICntrl=         0 IOpCl=  0 I1Cent=           0 NGrid=           0
         NMat0=    1 NMatS0=      1 NMatT0=    0 NMatD0=    1 NMtDS0=    0 NMtDT0=    0
 Symmetry not used in FoFCou.
 FMM levels:  10  Number of levels for PrismC:   9
 Inv3:  Mode=1 IEnd=   158209932.
 Iteration    1 A*A^-1 deviation from unit magnitude is 1.58D-14 for   3933.
 Iteration    1 A*A^-1 deviation from orthogonality  is 6.15D-15 for   3933   3753.
 Iteration    1 A^-1*A deviation from unit magnitude is 1.58D-14 for   3933.
 Iteration    1 A^-1*A deviation from orthogonality  is 2.33D-15 for   1727    379.
 E= -6293.41028801321    
 DIIS: error= 9.60D-02 at cycle   1 NSaved=   1.
 NSaved= 1 IEnMin= 1 EnMin= -6293.41028801321     IErMin= 1 ErrMin= 9.60D-02
 ErrMax= 9.60D-02  0.00D+00 EMaxC= 1.00D-01 BMatC= 3.17D+00 BMatP= 3.17D+00
 IDIUse=3 WtCom= 4.05D-02 WtEn= 9.60D-01
 Coeff-Com:  0.100D+01
 Coeff-En:   0.100D+01
 Coeff:      0.100D+01
 Gap=     0.020 Goal=   None    Shift=    0.000
 GapD=    0.020 DampG=0.250 DampE=0.250 DampFc=0.1250 IDamp=-1.
 Damping current iteration by 1.25D-01
 RMSDP=2.16D-03 MaxDP=1.66D-01              OVMax= 3.59D-01

 Cycle   2  Pass 1  IDiag  1:
 RMSU=  2.69D-04    CP:  1.00D+00
 E= -6293.61122211080     Delta-E=       -0.200934097589 Rises=F Damp=T
 DIIS: error= 8.51D-02 at cycle   2 NSaved=   2.
 NSaved= 2 IEnMin= 2 EnMin= -6293.61122211080     IErMin= 2 ErrMin= 8.51D-02
 ErrMax= 8.51D-02  0.00D+00 EMaxC= 1.00D-01 BMatC= 2.03D+00 BMatP= 3.17D+00
 IDIUse=3 WtCom= 1.49D-01 WtEn= 8.51D-01
 Coeff-Com: -0.289D+01 0.389D+01
 Coeff-En:   0.000D+00 0.100D+01
 Coeff:     -0.430D+00 0.143D+01
 Gap=     0.058 Goal=   None    Shift=    0.000
 RMSDP=1.17D-03 MaxDP=6.31D-02 DE=-2.01D-01 OVMax= 2.07D-01

 Cycle   3  Pass 1  IDiag  1:
 RMSU=  7.09D-04    CP:  9.89D-01  3.00D+00
 E= -6293.90398484509     Delta-E=       -0.292762734287 Rises=F Damp=F
 DIIS: error= 5.11D-02 at cycle   3 NSaved=   3.
 NSaved= 3 IEnMin= 3 EnMin= -6293.90398484509     IErMin= 3 ErrMin= 5.11D-02
 ErrMax= 5.11D-02  0.00D+00 EMaxC= 1.00D-01 BMatC= 8.40D-01 BMatP= 2.03D+00
 IDIUse=3 WtCom= 4.89D-01 WtEn= 5.11D-01
 EnCoef did   100 forward-backward iterations
 Coeff-Com:  0.511D+01-0.573D+01 0.162D+01
 Coeff-En:   0.300D+00 0.132D-01 0.687D+00
 Coeff:      0.265D+01-0.280D+01 0.115D+01
 Gap=     0.079 Goal=   None    Shift=    0.000
 RMSDP=1.01D-03 MaxDP=8.67D-02 DE=-2.93D-01 OVMax= 8.60D-02

 Cycle   4  Pass 1  IDiag  1:
 RMSU=  5.26D-04    CP:  9.71D-01  1.44D+00  5.47D-01
 E= -6294.25904182179     Delta-E=       -0.355056976703 Rises=F Damp=F
 DIIS: error= 2.71D-02 at cycle   4 NSaved=   4.
 NSaved= 4 IEnMin= 4 EnMin= -6294.25904182179     IErMin= 4 ErrMin= 2.71D-02
 ErrMax= 2.71D-02  0.00D+00 EMaxC= 1.00D-01 BMatC= 1.86D-01 BMatP= 8.40D-01
 IDIUse=3 WtCom= 7.29D-01 WtEn= 2.71D-01
 Coeff-Com:  0.988D+00-0.109D+01 0.561D+00 0.543D+00
 Coeff-En:   0.000D+00 0.000D+00 0.115D+00 0.885D+00
 Coeff:      0.721D+00-0.796D+00 0.440D+00 0.635D+00
 Gap=     0.097 Goal=   None    Shift=    0.000
 RMSDP=3.70D-04 MaxDP=2.60D-02 DE=-3.55D-01 OVMax= 5.57D-02

 Cycle   5  Pass 1  IDiag  1:
 RMSU=  2.73D-04    CP:  9.67D-01  2.30D+00  6.20D-01  8.60D-01
 E= -6294.29707239613     Delta-E=       -0.038030574338 Rises=F Damp=F
 DIIS: error= 1.34D-02 at cycle   5 NSaved=   5.
 NSaved= 5 IEnMin= 5 EnMin= -6294.29707239613     IErMin= 5 ErrMin= 1.34D-02
 ErrMax= 1.34D-02  0.00D+00 EMaxC= 1.00D-01 BMatC= 5.47D-02 BMatP= 1.86D-01
 IDIUse=3 WtCom= 8.66D-01 WtEn= 1.34D-01
 Coeff-Com: -0.174D+00 0.208D+00 0.945D-01 0.460D+00 0.413D+00
 Coeff-En:   0.000D+00 0.000D+00 0.000D+00 0.297D+00 0.703D+00
 Coeff:     -0.151D+00 0.180D+00 0.818D-01 0.438D+00 0.452D+00
 Gap=     0.083 Goal=   None    Shift=    0.000
 RMSDP=1.45D-04 MaxDP=1.07D-02 DE=-3.80D-02 OVMax= 4.47D-02

 Cycle   6  Pass 1  IDiag  1:
 RMSU=  4.27D-05    CP:  9.72D-01  2.36D+00  5.50D-01  8.56D-01  5.41D-01
 E= -6294.32246775356     Delta-E=       -0.025395357428 Rises=F Damp=F
 DIIS: error= 1.48D-03 at cycle   6 NSaved=   6.
 NSaved= 6 IEnMin= 6 EnMin= -6294.32246775356     IErMin= 6 ErrMin= 1.48D-03
 ErrMax= 1.48D-03  0.00D+00 EMaxC= 1.00D-01 BMatC= 9.16D-04 BMatP= 5.47D-02
 IDIUse=3 WtCom= 9.85D-01 WtEn= 1.48D-02
 Coeff-Com: -0.626D-01 0.735D-01 0.307D-01 0.207D+00 0.234D+00 0.518D+00
 Coeff-En:   0.000D+00 0.000D+00 0.000D+00 0.000D+00 0.000D+00 0.100D+01
 Coeff:     -0.617D-01 0.724D-01 0.303D-01 0.204D+00 0.231D+00 0.525D+00
 Gap=     0.085 Goal=   None    Shift=    0.000
 RMSDP=3.66D-05 MaxDP=2.92D-03 DE=-2.54D-02 OVMax= 7.91D-03

 Cycle   7  Pass 1  IDiag  1:
 RMSU=  1.68D-05    CP:  9.71D-01  2.30D+00  5.66D-01  8.81D-01  5.50D-01
                    CP:  5.52D-01
 E= -6294.32329418688     Delta-E=       -0.000826433326 Rises=F Damp=F
 DIIS: error= 5.53D-04 at cycle   7 NSaved=   7.
 NSaved= 7 IEnMin= 7 EnMin= -6294.32329418688     IErMin= 7 ErrMin= 5.53D-04
 ErrMax= 5.53D-04  0.00D+00 EMaxC= 1.00D-01 BMatC= 1.42D-04 BMatP= 9.16D-04
 IDIUse=3 WtCom= 9.94D-01 WtEn= 5.53D-03
 Coeff-Com: -0.467D-01 0.538D-01 0.509D-02 0.925D-01 0.108D+00 0.351D+00
 Coeff-Com:  0.436D+00
 Coeff-En:   0.000D+00 0.000D+00 0.000D+00 0.000D+00 0.000D+00 0.116D+00
 Coeff-En:   0.884D+00
 Coeff:     -0.464D-01 0.535D-01 0.506D-02 0.920D-01 0.108D+00 0.349D+00
 Coeff:      0.439D+00
 Gap=     0.085 Goal=   None    Shift=    0.000
 RMSDP=1.14D-05 MaxDP=8.54D-04 DE=-8.26D-04 OVMax= 2.85D-03

 Cycle   8  Pass 1  IDiag  1:
 RMSU=  3.91D-06    CP:  9.71D-01  2.28D+00  5.66D-01  8.80D-01  5.55D-01
                    CP:  6.79D-01  5.28D-01
 E= -6294.32343236096     Delta-E=       -0.000138174080 Rises=F Damp=F
 DIIS: error= 1.55D-04 at cycle   8 NSaved=   8.
 NSaved= 8 IEnMin= 8 EnMin= -6294.32343236096     IErMin= 8 ErrMin= 1.55D-04
 ErrMax= 1.55D-04  0.00D+00 EMaxC= 1.00D-01 BMatC= 9.49D-06 BMatP= 1.42D-04
 IDIUse=3 WtCom= 9.98D-01 WtEn= 1.55D-03
 Coeff-Com: -0.209D-01 0.240D-01 0.560D-04 0.341D-01 0.385D-01 0.153D+00
 Coeff-Com:  0.269D+00 0.502D+00
 Coeff-En:   0.000D+00 0.000D+00 0.000D+00 0.000D+00 0.000D+00 0.000D+00
 Coeff-En:   0.000D+00 0.100D+01
 Coeff:     -0.209D-01 0.239D-01 0.559D-04 0.340D-01 0.385D-01 0.153D+00
 Coeff:      0.268D+00 0.503D+00
 Gap=     0.085 Goal=   None    Shift=    0.000
 RMSDP=2.48D-06 MaxDP=1.29D-04 DE=-1.38D-04 OVMax= 8.42D-04

 Cycle   9  Pass 1  IDiag  1:
 RMSU=  1.53D-06    CP:  9.71D-01  2.28D+00  5.66D-01  8.81D-01  5.51D-01
                    CP:  6.64D-01  5.85D-01  7.81D-01
 E= -6294.32343991617     Delta-E=       -0.000007555205 Rises=F Damp=F
 DIIS: error= 3.40D-05 at cycle   9 NSaved=   9.
 NSaved= 9 IEnMin= 9 EnMin= -6294.32343991617     IErMin= 9 ErrMin= 3.40D-05
 ErrMax= 3.40D-05  0.00D+00 EMaxC= 1.00D-01 BMatC= 7.90D-07 BMatP= 9.49D-06
 IDIUse=1 WtCom= 1.00D+00 WtEn= 0.00D+00
 Coeff-Com: -0.684D-02 0.782D-02-0.618D-03 0.823D-02 0.824D-02 0.381D-01
 Coeff-Com:  0.973D-01 0.281D+00 0.567D+00
 Coeff:     -0.684D-02 0.782D-02-0.618D-03 0.823D-02 0.824D-02 0.381D-01
 Coeff:      0.973D-01 0.281D+00 0.567D+00
 Gap=     0.085 Goal=   None    Shift=    0.000
 RMSDP=1.20D-06 MaxDP=1.16D-04 DE=-7.56D-06 OVMax= 1.37D-04

 Cycle  10  Pass 1  IDiag  1:
 RMSU=  5.08D-07    CP:  9.71D-01  2.28D+00  5.65D-01  8.80D-01  5.51D-01
                    CP:  6.72D-01  5.89D-01  7.65D-01  6.61D-01
 E= -6294.32344062696     Delta-E=       -0.000000710792 Rises=F Damp=F
 DIIS: error= 8.16D-06 at cycle  10 NSaved=  10.
 NSaved=10 IEnMin=10 EnMin= -6294.32344062696     IErMin=10 ErrMin= 8.16D-06
 ErrMax= 8.16D-06  0.00D+00 EMaxC= 1.00D-01 BMatC= 4.63D-08 BMatP= 7.90D-07
 IDIUse=1 WtCom= 1.00D+00 WtEn= 0.00D+00
 Coeff-Com: -0.777D-03 0.881D-03-0.161D-03 0.778D-03 0.367D-03 0.355D-02
 Coeff-Com:  0.215D-01 0.797D-01 0.248D+00 0.646D+00
 Coeff:     -0.777D-03 0.881D-03-0.161D-03 0.778D-03 0.367D-03 0.355D-02
 Coeff:      0.215D-01 0.797D-01 0.248D+00 0.646D+00
 Gap=     0.085 Goal=   None    Shift=    0.000
 RMSDP=3.53D-07 MaxDP=3.12D-05 DE=-7.11D-07 OVMax= 6.02D-05

 Cycle  11  Pass 1  IDiag  1:
 RMSU=  1.43D-07    CP:  9.71D-01  2.28D+00  5.65D-01  8.80D-01  5.51D-01
                    CP:  6.71D-01  5.91D-01  7.76D-01  7.02D-01  7.69D-01
 E= -6294.32344064920     Delta-E=       -0.000000022243 Rises=F Damp=F
 DIIS: error= 6.17D-06 at cycle  11 NSaved=  11.
 NSaved=11 IEnMin=11 EnMin= -6294.32344064920     IErMin=11 ErrMin= 6.17D-06
 ErrMax= 6.17D-06  0.00D+00 EMaxC= 1.00D-01 BMatC= 1.98D-08 BMatP= 4.63D-08
 IDIUse=1 WtCom= 1.00D+00 WtEn= 0.00D+00
 Coeff-Com:  0.197D-03-0.229D-03-0.224D-04-0.316D-03-0.565D-03-0.202D-02
 Coeff-Com:  0.300D-02 0.194D-01 0.967D-01 0.439D+00 0.445D+00
 Coeff:      0.197D-03-0.229D-03-0.224D-04-0.316D-03-0.565D-03-0.202D-02
 Coeff:      0.300D-02 0.194D-01 0.967D-01 0.439D+00 0.445D+00
 Gap=     0.085 Goal=   None    Shift=    0.000
 RMSDP=8.56D-08 MaxDP=9.91D-06 DE=-2.22D-08 OVMax= 2.42D-05

 Cycle  12  Pass 1  IDiag  1:
 RMSU=  4.12D-08    CP:  9.71D-01  2.28D+00  5.65D-01  8.81D-01  5.51D-01
                    CP:  6.70D-01  5.92D-01  7.78D-01  6.99D-01  8.09D-01
                    CP:  5.28D-01
 E= -6294.32344066656     Delta-E=       -0.000000017357 Rises=F Damp=F
 DIIS: error= 8.65D-07 at cycle  12 NSaved=  12.
 NSaved=12 IEnMin=12 EnMin= -6294.32344066656     IErMin=12 ErrMin= 8.65D-07
 ErrMax= 8.65D-07  0.00D+00 EMaxC= 1.00D-01 BMatC= 4.29D-10 BMatP= 1.98D-08
 IDIUse=1 WtCom= 1.00D+00 WtEn= 0.00D+00
 Coeff-Com:  0.465D-04-0.542D-04-0.133D-04-0.140D-03-0.231D-03-0.987D-03
 Coeff-Com:  0.657D-03 0.605D-02 0.342D-01 0.174D+00 0.210D+00 0.576D+00
 Coeff:      0.465D-04-0.542D-04-0.133D-04-0.140D-03-0.231D-03-0.987D-03
 Coeff:      0.657D-03 0.605D-02 0.342D-01 0.174D+00 0.210D+00 0.576D+00
 Gap=     0.085 Goal=   None    Shift=    0.000
 RMSDP=2.05D-08 MaxDP=1.30D-06 DE=-1.74D-08 OVMax= 3.64D-06

 Cycle  13  Pass 1  IDiag  1:
 RMSU=  1.19D-08    CP:  9.71D-01  2.28D+00  5.65D-01  8.81D-01  5.51D-01
                    CP:  6.71D-01  5.92D-01  7.78D-01  7.02D-01  8.16D-01
                    CP:  5.41D-01  7.47D-01
 E= -6294.32344066697     Delta-E=       -0.000000000415 Rises=F Damp=F
 DIIS: error= 2.94D-07 at cycle  13 NSaved=  13.
 NSaved=13 IEnMin=13 EnMin= -6294.32344066697     IErMin=13 ErrMin= 2.94D-07
 ErrMax= 2.94D-07  0.00D+00 EMaxC= 1.00D-01 BMatC= 7.31D-11 BMatP= 4.29D-10
 IDIUse=1 WtCom= 1.00D+00 WtEn= 0.00D+00
 Coeff-Com:  0.605D-05-0.706D-05-0.562D-05-0.493D-04-0.760D-04-0.361D-03
 Coeff-Com:  0.211D-04 0.129D-02 0.908D-02 0.523D-01 0.740D-01 0.345D+00
 Coeff-Com:  0.519D+00
 Coeff:      0.605D-05-0.706D-05-0.562D-05-0.493D-04-0.760D-04-0.361D-03
 Coeff:      0.211D-04 0.129D-02 0.908D-02 0.523D-01 0.740D-01 0.345D+00
 Coeff:      0.519D+00
 Gap=     0.085 Goal=   None    Shift=    0.000
 RMSDP=5.56D-09 MaxDP=3.75D-07 DE=-4.15D-10 OVMax= 1.19D-06

 Error on total polarization charges =  0.01429
 SCF Done:  E(RTPSSh) =  -6294.32344067     A.U. after   13 cycles
            NFock= 13  Conv=0.56D-08     -V/T= 2.0019
 KE= 6.282549404495D+03 PE=-4.024794464869D+04 EE= 1.489790414327D+04
 Leave Link  502 at Sat Aug 31 13:25:09 2024, MaxMem= 11953766400 cpu:           18461.2 elap:             776.6
 (Enter /opt/gaussian16/g16/l508.exe)
 QCSCF skips out because SCF is already converged.
 Leave Link  508 at Sat Aug 31 13:25:10 2024, MaxMem= 11953766400 cpu:               0.0 elap:               0.0
 (Enter /opt/gaussian16/g16/l801.exe)
 DoSCS=F DFT=T ScalE2(SS,OS)=  1.000000  1.000000
 Range of M.O.s used for correlation:     1  1484
 NBasis=  1484 NAE=   249 NBE=   249 NFC=     0 NFV=     0
 NROrb=   1484 NOA=   249 NOB=   249 NVA=  1235 NVB=  1235

 **** Warning!!: The largest alpha MO coefficient is  0.17528959D+02


 **** Warning!!: The smallest alpha delta epsilon is  0.84718178D-01

 Leave Link  801 at Sat Aug 31 13:25:10 2024, MaxMem= 11953766400 cpu:               1.5 elap:               0.1
 (Enter /opt/gaussian16/g16/l1002.exe)
 Minotr:  Closed shell wavefunction.
 NEqPCM:  Using equilibrium solvation (IEInf=0, Eps=  35.6880, EpsInf=   1.8069)
          Direct CPHF calculation.
          Differentiating once with respect to magnetic field using GIAOs.
          Electric field/nuclear overlap derivatives assumed to be zero.
          Using symmetry in CPHF.
          Requested convergence is 1.0D-08 RMS, and 1.0D-07 maximum.
          Secondary convergence is 1.0D-12 RMS, and 1.0D-12 maximum.
          NewPWx=T KeepS1=F KeepF1=F KeepIn=T MapXYZ=F SortEE=F KeepMc=T.
        31391 words used for storage of precomputed grid.
 Two-electron integral symmetry used by symmetrizing perturbed Fock matrices.
          MDV=   11953766400 using IRadAn=       1.
          Solving linear equations simultaneously, MaxMat=      72.
 FoFJK:  IHMeth= 1 ICntrl=    6127 DoSepK=F KAlg= 0 I1Cent=           0 FoldK=F
 IRaf=         1 NMat=       1 IRICut=       1 DoRegI=T DoRafI=F ISym2E= 0 IDoP0=0 IntGTp=1.
          There are     3 degrees of freedom in the 1st order CPHF.  IDoFFX=0 NUNeed=     3.
      3 vectors produced by pass  0 Test12= 1.03D-11 3.33D-08 XBig12= 8.96D+02 1.10D+01.
 AX will form     3 AO Fock derivatives at one time.
      3 vectors produced by pass  1 Test12= 1.03D-11 3.33D-08 XBig12= 1.42D+00 4.73D-01.
      3 vectors produced by pass  2 Test12= 1.03D-11 3.33D-08 XBig12= 9.77D-04 9.79D-03.
      3 vectors produced by pass  3 Test12= 1.03D-11 3.33D-08 XBig12= 1.51D-06 7.82D-04.
      3 vectors produced by pass  4 Test12= 1.03D-11 3.33D-08 XBig12= 3.06D-09 2.65D-05.
      3 vectors produced by pass  5 Test12= 1.03D-11 3.33D-08 XBig12= 5.54D-12 6.24D-07.
      1 vectors produced by pass  6 Test12= 1.03D-11 3.33D-08 XBig12= 1.28D-14 5.35D-08.
 InvSVY:  IOpt=1 It=  1 EMax= 1.93D-16
 Solved reduced A of dimension    19 with     3 vectors.
 Calculating GIAO nuclear magnetic shielding tensors.
 SCF GIAO Magnetic shielding tensor (ppm):
      1  Zn   Isotropic =  1670.9791   Anisotropy =   391.4915
   XX=  1931.9735   YX=     0.0000   ZX=    -0.0000
   XY=     0.0000   YY=  1432.7010   ZY=     0.0000
   XZ=    -0.0000   YZ=    -0.0000   ZZ=  1648.2629
   Eigenvalues:  1432.7010  1648.2629  1931.9735
      2  N    Isotropic =   -30.3672   Anisotropy =   461.7609
   XX=  -231.8974   YX=    33.3153   ZX=    -0.0000
   XY=    46.5822   YY=  -136.6777   ZY=    -0.0000
   XZ=    -0.0000   YZ=     0.0000   ZZ=   277.4734
   Eigenvalues:  -246.4374  -122.1378   277.4734
      3  N    Isotropic =    -6.7687   Anisotropy =   427.4554
   XX=  -184.7881   YX=     0.0000   ZX=   -21.4289
   XY=    -0.0000   YY=   278.2016   ZY=    -0.0000
   XZ=   -19.1571   YZ=    -0.0000   ZZ=  -113.7195
   Eigenvalues:  -190.1744  -108.3333   278.2016
      4  N    Isotropic =   -30.3672   Anisotropy =   461.7609
   XX=  -231.8974   YX=   -33.3153   ZX=    -0.0000
   XY=   -46.5822   YY=  -136.6777   ZY=     0.0000
   XZ=    -0.0000   YZ=    -0.0000   ZZ=   277.4734
   Eigenvalues:  -246.4374  -122.1378   277.4734
      5  N    Isotropic =    19.0081   Anisotropy =   397.4499
   XX=   -78.4753   YX=    -0.0000   ZX=     0.0000
   XY=     0.0000   YY=   283.9747   ZY=    -0.0000
   XZ=    -0.0000   YZ=    -0.0000   ZZ=  -148.4750
   Eigenvalues:  -148.4750   -78.4753   283.9747
      6  C    Isotropic =    56.9205   Anisotropy =   179.4327
   XX=   -27.4944   YX=     5.3129   ZX=     0.0000
   XY=    11.9382   YY=    21.7137   ZY=     0.0000
   XZ=     0.0000   YZ=     0.0000   ZZ=   176.5423
   Eigenvalues:   -28.9626    23.1818   176.5423
      7  C    Isotropic =    48.0492   Anisotropy =   156.8840
   XX=     5.0815   YX=   -17.0816   ZX=     0.0000
   XY=   -15.9983   YY=   -13.5725   ZY=    -0.0000
   XZ=     0.0000   YZ=    -0.0000   ZZ=   152.6385
   Eigenvalues:   -23.2340    14.7430   152.6385
      8  N    Isotropic =     5.2991   Anisotropy =   416.3528
   XX=   -94.0608   YX=    -0.0000   ZX=     0.0000
   XY=     0.0000   YY=  -172.9095   ZY=     0.0000
   XZ=     0.0000   YZ=    -0.0000   ZZ=   282.8677
   Eigenvalues:  -172.9095   -94.0608   282.8677
      9  C    Isotropic =    47.8476   Anisotropy =   159.1452
   XX=    -0.0821   YX=    34.2696   ZX=    -0.0000
   XY=    17.2677   YY=   -10.3196   ZY=    -0.0000
   XZ=    -0.0000   YZ=    -0.0000   ZZ=   153.9444
   Eigenvalues:   -31.4730    21.0713   153.9444
     10  C    Isotropic =    38.0939   Anisotropy =   153.9221
   XX=    17.1453   YX=    -0.0000   ZX=   -16.0806
   XY=    -0.0000   YY=   140.7087   ZY=    -0.0000
   XZ=   -33.9639   YZ=    -0.0000   ZZ=   -43.5722
   Eigenvalues:   -52.5552    26.1282   140.7087
     11  C    Isotropic =    51.3549   Anisotropy =   198.4207
   XX=    13.1215   YX=    24.5477   ZX=     0.0000
   XY=    18.0801   YY=   -42.6921   ZY=    -0.0000
   XZ=     0.0000   YZ=    -0.0000   ZZ=   183.6354
   Eigenvalues:   -49.9004    20.3298   183.6354
     12  H    Isotropic =    22.5564   Anisotropy =     8.6706
   XX=    27.4265   YX=     2.0861   ZX=     0.0000
   XY=     1.5412   YY=    24.7232   ZY=    -0.0000
   XZ=     0.0000   YZ=     0.0000   ZZ=    15.5194
   Eigenvalues:    15.5194    23.8129    28.3368
     13  C    Isotropic =    56.9205   Anisotropy =   179.4327
   XX=   -27.4944   YX=    -5.3129   ZX=    -0.0000
   XY=   -11.9382   YY=    21.7137   ZY=     0.0000
   XZ=    -0.0000   YZ=     0.0000   ZZ=   176.5423
   Eigenvalues:   -28.9626    23.1818   176.5423
     14  N    Isotropic =    -6.7687   Anisotropy =   427.4554
   XX=  -184.7881   YX=     0.0000   ZX=    21.4289
   XY=    -0.0000   YY=   278.2016   ZY=     0.0000
   XZ=    19.1571   YZ=     0.0000   ZZ=  -113.7195
   Eigenvalues:  -190.1744  -108.3333   278.2016
     15  C    Isotropic =    47.8476   Anisotropy =   159.1452
   XX=    -0.0821   YX=   -34.2696   ZX=    -0.0000
   XY=   -17.2677   YY=   -10.3196   ZY=     0.0000
   XZ=    -0.0000   YZ=     0.0000   ZZ=   153.9444
   Eigenvalues:   -31.4730    21.0713   153.9444
     16  C    Isotropic =    39.4197   Anisotropy =   157.1330
   XX=   -21.2361   YX=     0.0000   ZX=   -45.2253
   XY=     0.0000   YY=   144.1750   ZY=     0.0000
   XZ=   -35.7047   YZ=     0.0000   ZZ=    -4.6800
   Eigenvalues:   -54.2611    28.3451   144.1750
     17  C    Isotropic =    63.4474   Anisotropy =   175.4665
   XX=    20.1036   YX=    -0.0000   ZX=    38.6049
   XY=     0.0000   YY=   180.4251   ZY=    -0.0000
   XZ=    33.9496   YZ=     0.0000   ZZ=   -10.1863
   Eigenvalues:   -34.3531    44.2703   180.4251
     18  H    Isotropic =    23.0827   Anisotropy =     7.3699
   XX=    27.3525   YX=     0.0000   ZX=     2.2205
   XY=    -0.0000   YY=    17.9687   ZY=    -0.0000
   XZ=     1.0158   YZ=     0.0000   ZZ=    23.9271
   Eigenvalues:    17.9687    23.2835    27.9960
     19  C    Isotropic =    38.0939   Anisotropy =   153.9221
   XX=    17.1453   YX=    -0.0000   ZX=    16.0806
   XY=     0.0000   YY=   140.7087   ZY=     0.0000
   XZ=    33.9639   YZ=     0.0000   ZZ=   -43.5722
   Eigenvalues:   -52.5552    26.1282   140.7087
     20  C    Isotropic =    63.4643   Anisotropy =   175.6815
   XX=   -30.2036   YX=     0.0000   ZX=    18.5758
   XY=    -0.0000   YY=   180.5853   ZY=     0.0000
   XZ=    23.3462   YZ=     0.0000   ZZ=    40.0112
   Eigenvalues:   -35.9850    45.7926   180.5853
     21  H    Isotropic =    23.2329   Anisotropy =     7.2109
   XX=    23.9706   YX=    -0.0000   ZX=     0.8162
   XY=    -0.0000   YY=    17.7085   ZY=     0.0000
   XZ=    -0.2379   YZ=     0.0000   ZZ=    28.0196
   Eigenvalues:    17.7085    23.9501    28.0402
     22  C    Isotropic =    44.9730   Anisotropy =   204.6718
   XX=     9.5507   YX=     0.0000   ZX=    23.7404
   XY=     0.0000   YY=   181.4208   ZY=    -0.0000
   XZ=    19.3498   YZ=     0.0000   ZZ=   -56.0526
   Eigenvalues:   -62.4955    15.9937   181.4208
     23  H    Isotropic =    23.6797   Anisotropy =     4.1367
   XX=    26.4359   YX=     0.0000   ZX=     0.7510
   XY=     0.0000   YY=    19.5779   ZY=    -0.0000
   XZ=    -0.6551   YZ=     0.0000   ZZ=    25.0254
   Eigenvalues:    19.5779    25.0237    26.4375
     24  C    Isotropic =    40.4232   Anisotropy =   163.5373
   XX=   -60.7243   YX=    -0.0000   ZX=     8.7065
   XY=    -0.0000   YY=   149.4481   ZY=    -0.0000
   XZ=    -4.8799   YZ=     0.0000   ZZ=    32.5459
   Eigenvalues:   -60.7635    32.5851   149.4481
     25  H    Isotropic =    24.2667   Anisotropy =    13.8841
   XX=    23.4121   YX=    -0.0000   ZX=     0.4445
   XY=     0.0000   YY=    16.2360   ZY=    -0.0000
   XZ=    -4.3165   YZ=     0.0000   ZZ=    33.1521
   Eigenvalues:    16.2360    23.0414    33.5228
     26  C    Isotropic =    51.3549   Anisotropy =   198.4207
   XX=    13.1215   YX=   -24.5477   ZX=     0.0000
   XY=   -18.0801   YY=   -42.6921   ZY=     0.0000
   XZ=     0.0000   YZ=    -0.0000   ZZ=   183.6354
   Eigenvalues:   -49.9004    20.3298   183.6354
     27  H    Isotropic =    22.5564   Anisotropy =     8.6706
   XX=    27.4265   YX=    -2.0861   ZX=     0.0000
   XY=    -1.5412   YY=    24.7232   ZY=     0.0000
   XZ=     0.0000   YZ=    -0.0000   ZZ=    15.5194
   Eigenvalues:    15.5194    23.8129    28.3368
     28  C    Isotropic =    42.0872   Anisotropy =   204.5119
   XX=   -64.6459   YX=     0.0000   ZX=    -0.0000
   XY=    -0.0000   YY=   178.4285   ZY=     0.0000
   XZ=    -0.0000   YZ=    -0.0000   ZZ=    12.4790
   Eigenvalues:   -64.6459    12.4790   178.4285
     29  H    Isotropic =    23.0442   Anisotropy =     3.9069
   XX=    24.1165   YX=     0.0000   ZX=     0.0000
   XY=     0.0000   YY=    19.3672   ZY=    -0.0000
   XZ=     0.0000   YZ=    -0.0000   ZZ=    25.6488
   Eigenvalues:    19.3672    24.1165    25.6488
     30  C    Isotropic =    59.2009   Anisotropy =   177.1690
   XX=     7.6492   YX=     0.0000   ZX=   -40.4406
   XY=    -0.0000   YY=   177.3135   ZY=    -0.0000
   XZ=   -53.2841   YZ=     0.0000   ZZ=    -7.3601
   Eigenvalues:   -47.3149    47.6040   177.3135
     31  H    Isotropic =    24.6495   Anisotropy =     8.3521
   XX=    25.8382   YX=     0.0000   ZX=    -1.7112
   XY=    -0.0000   YY=    19.8882   ZY=    -0.0000
   XZ=    -4.2010   YZ=     0.0000   ZZ=    28.2222
   Eigenvalues:    19.8882    23.8428    30.2176
     32  C    Isotropic =    48.0492   Anisotropy =   156.8840
   XX=     5.0815   YX=    17.0816   ZX=     0.0000
   XY=    15.9983   YY=   -13.5725   ZY=     0.0000
   XZ=     0.0000   YZ=     0.0000   ZZ=   152.6385
   Eigenvalues:   -23.2340    14.7430   152.6385
     33  C    Isotropic =    35.5830   Anisotropy =   173.6694
   XX=   -63.7895   YX=     2.0157   ZX=     0.0000
   XY=    11.7030   YY=    19.1759   ZY=     0.0000
   XZ=    -0.0000   YZ=    -0.0000   ZZ=   151.3626
   Eigenvalues:   -64.3528    19.7392   151.3626
     34  H    Isotropic =    23.2647   Anisotropy =    11.9637
   XX=    22.5745   YX=    -0.1677   ZX=     0.0000
   XY=     0.7627   YY=    31.2303   ZY=    -0.0000
   XZ=    -0.0000   YZ=    -0.0000   ZZ=    15.9893
   Eigenvalues:    15.9893    22.5643    31.2405
     35  C    Isotropic =    63.4474   Anisotropy =   175.4665
   XX=    20.1036   YX=    -0.0000   ZX=   -38.6049
   XY=     0.0000   YY=   180.4251   ZY=     0.0000
   XZ=   -33.9496   YZ=    -0.0000   ZZ=   -10.1863
   Eigenvalues:   -34.3531    44.2703   180.4251
     36  H    Isotropic =    23.0827   Anisotropy =     7.3699
   XX=    27.3525   YX=     0.0000   ZX=    -2.2205
   XY=    -0.0000   YY=    17.9687   ZY=     0.0000
   XZ=    -1.0158   YZ=    -0.0000   ZZ=    23.9271
   Eigenvalues:    17.9687    23.2835    27.9960
     37  C    Isotropic =    35.5830   Anisotropy =   173.6694
   XX=   -63.7895   YX=    -2.0157   ZX=     0.0000
   XY=   -11.7030   YY=    19.1759   ZY=    -0.0000
   XZ=    -0.0000   YZ=     0.0000   ZZ=   151.3626
   Eigenvalues:   -64.3528    19.7392   151.3626
     38  H    Isotropic =    23.2647   Anisotropy =    11.9637
   XX=    22.5745   YX=     0.1677   ZX=     0.0000
   XY=    -0.7627   YY=    31.2303   ZY=     0.0000
   XZ=    -0.0000   YZ=     0.0000   ZZ=    15.9893
   Eigenvalues:    15.9893    22.5643    31.2405
     39  C    Isotropic =    39.4197   Anisotropy =   157.1330
   XX=   -21.2361   YX=     0.0000   ZX=    45.2253
   XY=    -0.0000   YY=   144.1750   ZY=    -0.0000
   XZ=    35.7047   YZ=    -0.0000   ZZ=    -4.6800
   Eigenvalues:   -54.2611    28.3451   144.1750
     40  C    Isotropic =    56.8536   Anisotropy =   178.9721
   XX=    22.2471   YX=    31.9392   ZX=     0.0000
   XY=    41.3120   YY=   -27.8547   ZY=    -0.0000
   XZ=    -0.0000   YZ=     0.0000   ZZ=   176.1684
   Eigenvalues:   -47.1770    41.5694   176.1684
     41  H    Isotropic =    23.8000   Anisotropy =     5.9497
   XX=    26.5585   YX=     0.9178   ZX=     0.0000
   XY=     1.8366   YY=    26.1963   ZY=    -0.0000
   XZ=     0.0000   YZ=     0.0000   ZZ=    18.6452
   Eigenvalues:    18.6452    24.9884    27.7665
     42  C    Isotropic =    56.8536   Anisotropy =   178.9721
   XX=    22.2471   YX=   -31.9392   ZX=    -0.0000
   XY=   -41.3120   YY=   -27.8547   ZY=     0.0000
   XZ=    -0.0000   YZ=     0.0000   ZZ=   176.1684
   Eigenvalues:   -47.1770    41.5694   176.1684
     43  H    Isotropic =    23.8000   Anisotropy =     5.9497
   XX=    26.5585   YX=    -0.9178   ZX=     0.0000
   XY=    -1.8366   YY=    26.1963   ZY=     0.0000
   XZ=     0.0000   YZ=    -0.0000   ZZ=    18.6452
   Eigenvalues:    18.6452    24.9884    27.7665
     44  C    Isotropic =    63.4643   Anisotropy =   175.6815
   XX=   -30.2036   YX=     0.0000   ZX=   -18.5758
   XY=    -0.0000   YY=   180.5853   ZY=     0.0000
   XZ=   -23.3462   YZ=    -0.0000   ZZ=    40.0112
   Eigenvalues:   -35.9850    45.7926   180.5853
     45  H    Isotropic =    23.2329   Anisotropy =     7.2109
   XX=    23.9706   YX=    -0.0000   ZX=    -0.8162
   XY=    -0.0000   YY=    17.7085   ZY=    -0.0000
   XZ=     0.2379   YZ=    -0.0000   ZZ=    28.0196
   Eigenvalues:    17.7085    23.9501    28.0402
     46  C    Isotropic =    40.4232   Anisotropy =   163.5373
   XX=   -60.7243   YX=     0.0000   ZX=    -8.7065
   XY=    -0.0000   YY=   149.4481   ZY=    -0.0000
   XZ=     4.8799   YZ=    -0.0000   ZZ=    32.5459
   Eigenvalues:   -60.7635    32.5851   149.4481
     47  H    Isotropic =    24.2667   Anisotropy =    13.8841
   XX=    23.4121   YX=    -0.0000   ZX=    -0.4445
   XY=     0.0000   YY=    16.2360   ZY=     0.0000
   XZ=     4.3165   YZ=    -0.0000   ZZ=    33.1521
   Eigenvalues:    16.2360    23.0414    33.5228
     48  C    Isotropic =    59.2009   Anisotropy =   177.1690
   XX=     7.6492   YX=     0.0000   ZX=    40.4406
   XY=    -0.0000   YY=   177.3135   ZY=     0.0000
   XZ=    53.2841   YZ=    -0.0000   ZZ=    -7.3601
   Eigenvalues:   -47.3149    47.6040   177.3135
     49  H    Isotropic =    24.6495   Anisotropy =     8.3521
   XX=    25.8382   YX=     0.0000   ZX=     1.7112
   XY=     0.0000   YY=    19.8882   ZY=     0.0000
   XZ=     4.2010   YZ=    -0.0000   ZZ=    28.2222
   Eigenvalues:    19.8882    23.8428    30.2176
     50  C    Isotropic =    44.9730   Anisotropy =   204.6718
   XX=     9.5507   YX=    -0.0000   ZX=   -23.7404
   XY=     0.0000   YY=   181.4208   ZY=     0.0000
   XZ=   -19.3498   YZ=    -0.0000   ZZ=   -56.0526
   Eigenvalues:   -62.4955    15.9937   181.4208
     51  H    Isotropic =    23.6797   Anisotropy =     4.1367
   XX=    26.4359   YX=     0.0000   ZX=    -0.7510
   XY=     0.0000   YY=    19.5779   ZY=     0.0000
   XZ=     0.6551   YZ=    -0.0000   ZZ=    25.0254
   Eigenvalues:    19.5779    25.0237    26.4375
     52  N    Isotropic =   -30.3672   Anisotropy =   461.7609
   XX=  -231.8974   YX=    33.3153   ZX=     0.0000
   XY=    46.5822   YY=  -136.6777   ZY=     0.0000
   XZ=     0.0000   YZ=    -0.0000   ZZ=   277.4734
   Eigenvalues:  -246.4374  -122.1378   277.4734
     53  N    Isotropic =   -30.3672   Anisotropy =   461.7609
   XX=  -231.8974   YX=   -33.3153   ZX=     0.0000
   XY=   -46.5822   YY=  -136.6777   ZY=    -0.0000
   XZ=     0.0000   YZ=     0.0000   ZZ=   277.4734
   Eigenvalues:  -246.4374  -122.1378   277.4734
     54  C    Isotropic =    56.9205   Anisotropy =   179.4327
   XX=   -27.4944   YX=     5.3129   ZX=    -0.0000
   XY=    11.9382   YY=    21.7137   ZY=    -0.0000
   XZ=    -0.0000   YZ=    -0.0000   ZZ=   176.5423
   Eigenvalues:   -28.9626    23.1818   176.5423
     55  C    Isotropic =    48.0492   Anisotropy =   156.8840
   XX=     5.0815   YX=   -17.0816   ZX=    -0.0000
   XY=   -15.9983   YY=   -13.5725   ZY=     0.0000
   XZ=    -0.0000   YZ=     0.0000   ZZ=   152.6385
   Eigenvalues:   -23.2340    14.7430   152.6385
     56  N    Isotropic =     5.2991   Anisotropy =   416.3528
   XX=   -94.0608   YX=     0.0000   ZX=    -0.0000
   XY=    -0.0000   YY=  -172.9095   ZY=     0.0000
   XZ=    -0.0000   YZ=    -0.0000   ZZ=   282.8677
   Eigenvalues:  -172.9095   -94.0608   282.8677
     57  C    Isotropic =    47.8476   Anisotropy =   159.1452
   XX=    -0.0821   YX=    34.2696   ZX=     0.0000
   XY=    17.2677   YY=   -10.3196   ZY=     0.0000
   XZ=    -0.0000   YZ=     0.0000   ZZ=   153.9444
   Eigenvalues:   -31.4730    21.0713   153.9444
     58  C    Isotropic =    51.3549   Anisotropy =   198.4207
   XX=    13.1215   YX=    24.5477   ZX=    -0.0000
   XY=    18.0801   YY=   -42.6921   ZY=     0.0000
   XZ=    -0.0000   YZ=    -0.0000   ZZ=   183.6354
   Eigenvalues:   -49.9004    20.3298   183.6354
     59  H    Isotropic =    22.5564   Anisotropy =     8.6706
   XX=    27.4265   YX=     2.0861   ZX=    -0.0000
   XY=     1.5412   YY=    24.7232   ZY=     0.0000
   XZ=    -0.0000   YZ=     0.0000   ZZ=    15.5194
   Eigenvalues:    15.5194    23.8129    28.3368
     60  C    Isotropic =    56.9205   Anisotropy =   179.4327
   XX=   -27.4944   YX=    -5.3129   ZX=     0.0000
   XY=   -11.9382   YY=    21.7137   ZY=    -0.0000
   XZ=     0.0000   YZ=    -0.0000   ZZ=   176.5423
   Eigenvalues:   -28.9626    23.1818   176.5423
     61  C    Isotropic =    47.8476   Anisotropy =   159.1452
   XX=    -0.0821   YX=   -34.2696   ZX=     0.0000
   XY=   -17.2677   YY=   -10.3196   ZY=    -0.0000
   XZ=    -0.0000   YZ=    -0.0000   ZZ=   153.9444
   Eigenvalues:   -31.4730    21.0713   153.9444
     62  C    Isotropic =    51.3549   Anisotropy =   198.4207
   XX=    13.1215   YX=   -24.5477   ZX=    -0.0000
   XY=   -18.0801   YY=   -42.6921   ZY=    -0.0000
   XZ=    -0.0000   YZ=    -0.0000   ZZ=   183.6354
   Eigenvalues:   -49.9004    20.3298   183.6354
     63  H    Isotropic =    22.5564   Anisotropy =     8.6706
   XX=    27.4265   YX=    -2.0861   ZX=    -0.0000
   XY=    -1.5412   YY=    24.7232   ZY=    -0.0000
   XZ=    -0.0000   YZ=     0.0000   ZZ=    15.5194
   Eigenvalues:    15.5194    23.8129    28.3368
     64  C    Isotropic =    48.0492   Anisotropy =   156.8840
   XX=     5.0815   YX=    17.0816   ZX=    -0.0000
   XY=    15.9983   YY=   -13.5725   ZY=    -0.0000
   XZ=    -0.0000   YZ=    -0.0000   ZZ=   152.6385
   Eigenvalues:   -23.2340    14.7430   152.6385
     65  C    Isotropic =    35.5830   Anisotropy =   173.6694
   XX=   -63.7895   YX=     2.0157   ZX=    -0.0000
   XY=    11.7030   YY=    19.1759   ZY=    -0.0000
   XZ=     0.0000   YZ=     0.0000   ZZ=   151.3626
   Eigenvalues:   -64.3528    19.7392   151.3626
     66  H    Isotropic =    23.2647   Anisotropy =    11.9637
   XX=    22.5745   YX=    -0.1677   ZX=    -0.0000
   XY=     0.7627   YY=    31.2303   ZY=    -0.0000
   XZ=     0.0000   YZ=     0.0000   ZZ=    15.9893
   Eigenvalues:    15.9893    22.5643    31.2405
     67  C    Isotropic =    35.5830   Anisotropy =   173.6694
   XX=   -63.7895   YX=    -2.0157   ZX=    -0.0000
   XY=   -11.7030   YY=    19.1759   ZY=     0.0000
   XZ=     0.0000   YZ=    -0.0000   ZZ=   151.3626
   Eigenvalues:   -64.3528    19.7392   151.3626
     68  H    Isotropic =    23.2647   Anisotropy =    11.9637
   XX=    22.5745   YX=     0.1677   ZX=    -0.0000
   XY=    -0.7627   YY=    31.2303   ZY=     0.0000
   XZ=     0.0000   YZ=    -0.0000   ZZ=    15.9893
   Eigenvalues:    15.9893    22.5643    31.2405
     69  C    Isotropic =    56.8536   Anisotropy =   178.9721
   XX=    22.2471   YX=    31.9392   ZX=     0.0000
   XY=    41.3120   YY=   -27.8547   ZY=    -0.0000
   XZ=     0.0000   YZ=     0.0000   ZZ=   176.1684
   Eigenvalues:   -47.1770    41.5694   176.1684
     70  H    Isotropic =    23.8000   Anisotropy =     5.9497
   XX=    26.5585   YX=     0.9178   ZX=    -0.0000
   XY=     1.8366   YY=    26.1963   ZY=    -0.0000
   XZ=    -0.0000   YZ=    -0.0000   ZZ=    18.6452
   Eigenvalues:    18.6452    24.9884    27.7665
     71  C    Isotropic =    56.8536   Anisotropy =   178.9721
   XX=    22.2471   YX=   -31.9392   ZX=     0.0000
   XY=   -41.3120   YY=   -27.8547   ZY=     0.0000
   XZ=     0.0000   YZ=     0.0000   ZZ=   176.1684
   Eigenvalues:   -47.1770    41.5694   176.1684
     72  H    Isotropic =    23.8000   Anisotropy =     5.9497
   XX=    26.5585   YX=    -0.9178   ZX=    -0.0000
   XY=    -1.8366   YY=    26.1963   ZY=     0.0000
   XZ=    -0.0000   YZ=    -0.0000   ZZ=    18.6452
   Eigenvalues:    18.6452    24.9884    27.7665
     73  Zn   Isotropic =  1670.9791   Anisotropy =   391.4915
   XX=  1931.9735   YX=    -0.0000   ZX=     0.0000
   XY=    -0.0000   YY=  1432.7010   ZY=     0.0000
   XZ=     0.0000   YZ=    -0.0000   ZZ=  1648.2629
   Eigenvalues:  1432.7010  1648.2629  1931.9735
     74  N    Isotropic =    -6.7687   Anisotropy =   427.4554
   XX=  -184.7881   YX=    -0.0000   ZX=    21.4289
   XY=     0.0000   YY=   278.2016   ZY=    -0.0000
   XZ=    19.1571   YZ=    -0.0000   ZZ=  -113.7195
   Eigenvalues:  -190.1744  -108.3333   278.2016
     75  N    Isotropic =    19.0081   Anisotropy =   397.4499
   XX=   -78.4753   YX=     0.0000   ZX=    -0.0000
   XY=    -0.0000   YY=   283.9747   ZY=    -0.0000
   XZ=     0.0000   YZ=    -0.0000   ZZ=  -148.4750
   Eigenvalues:  -148.4750   -78.4753   283.9747
     76  C    Isotropic =    38.0939   Anisotropy =   153.9221
   XX=    17.1453   YX=     0.0000   ZX=    16.0806
   XY=    -0.0000   YY=   140.7087   ZY=    -0.0000
   XZ=    33.9639   YZ=    -0.0000   ZZ=   -43.5722
   Eigenvalues:   -52.5552    26.1282   140.7087
     77  N    Isotropic =    -6.7687   Anisotropy =   427.4554
   XX=  -184.7881   YX=    -0.0000   ZX=   -21.4289
   XY=     0.0000   YY=   278.2016   ZY=     0.0000
   XZ=   -19.1571   YZ=     0.0000   ZZ=  -113.7195
   Eigenvalues:  -190.1744  -108.3333   278.2016
     78  C    Isotropic =    39.4197   Anisotropy =   157.1330
   XX=   -21.2361   YX=    -0.0000   ZX=    45.2253
   XY=    -0.0000   YY=   144.1750   ZY=    -0.0000
   XZ=    35.7047   YZ=     0.0000   ZZ=    -4.6800
   Eigenvalues:   -54.2611    28.3451   144.1750
     79  C    Isotropic =    63.4474   Anisotropy =   175.4665
   XX=    20.1036   YX=     0.0000   ZX=   -38.6049
   XY=    -0.0000   YY=   180.4251   ZY=    -0.0000
   XZ=   -33.9496   YZ=     0.0000   ZZ=   -10.1863
   Eigenvalues:   -34.3531    44.2703   180.4251
     80  H    Isotropic =    23.0827   Anisotropy =     7.3699
   XX=    27.3525   YX=    -0.0000   ZX=    -2.2205
   XY=     0.0000   YY=    17.9687   ZY=    -0.0000
   XZ=    -1.0158   YZ=     0.0000   ZZ=    23.9271
   Eigenvalues:    17.9687    23.2835    27.9960
     81  C    Isotropic =    38.0939   Anisotropy =   153.9221
   XX=    17.1453   YX=     0.0000   ZX=   -16.0806
   XY=    -0.0000   YY=   140.7087   ZY=     0.0000
   XZ=   -33.9639   YZ=     0.0000   ZZ=   -43.5722
   Eigenvalues:   -52.5552    26.1282   140.7087
     82  C    Isotropic =    63.4643   Anisotropy =   175.6815
   XX=   -30.2036   YX=    -0.0000   ZX=   -18.5758
   XY=     0.0000   YY=   180.5853   ZY=    -0.0000
   XZ=   -23.3462   YZ=     0.0000   ZZ=    40.0112
   Eigenvalues:   -35.9850    45.7926   180.5853
     83  H    Isotropic =    23.2329   Anisotropy =     7.2109
   XX=    23.9706   YX=     0.0000   ZX=    -0.8162
   XY=     0.0000   YY=    17.7085   ZY=     0.0000
   XZ=     0.2379   YZ=     0.0000   ZZ=    28.0196
   Eigenvalues:    17.7085    23.9501    28.0402
     84  C    Isotropic =    44.9730   Anisotropy =   204.6718
   XX=     9.5507   YX=    -0.0000   ZX=   -23.7404
   XY=    -0.0000   YY=   181.4208   ZY=     0.0000
   XZ=   -19.3498   YZ=     0.0000   ZZ=   -56.0526
   Eigenvalues:   -62.4955    15.9937   181.4208
     85  H    Isotropic =    23.6797   Anisotropy =     4.1367
   XX=    26.4359   YX=    -0.0000   ZX=    -0.7510
   XY=    -0.0000   YY=    19.5779   ZY=    -0.0000
   XZ=     0.6551   YZ=     0.0000   ZZ=    25.0254
   Eigenvalues:    19.5779    25.0237    26.4375
     86  C    Isotropic =    40.4232   Anisotropy =   163.5373
   XX=   -60.7243   YX=     0.0000   ZX=    -8.7065
   XY=     0.0000   YY=   149.4481   ZY=    -0.0000
   XZ=     4.8799   YZ=     0.0000   ZZ=    32.5459
   Eigenvalues:   -60.7635    32.5851   149.4481
     87  H    Isotropic =    24.2667   Anisotropy =    13.8841
   XX=    23.4121   YX=     0.0000   ZX=    -0.4445
   XY=    -0.0000   YY=    16.2360   ZY=    -0.0000
   XZ=     4.3165   YZ=     0.0000   ZZ=    33.1521
   Eigenvalues:    16.2360    23.0414    33.5228
     88  C    Isotropic =    42.0872   Anisotropy =   204.5119
   XX=   -64.6459   YX=    -0.0000   ZX=     0.0000
   XY=     0.0000   YY=   178.4285   ZY=     0.0000
   XZ=    -0.0000   YZ=     0.0000   ZZ=    12.4790
   Eigenvalues:   -64.6459    12.4790   178.4285
     89  H    Isotropic =    23.0442   Anisotropy =     3.9069
   XX=    24.1165   YX=    -0.0000   ZX=    -0.0000
   XY=    -0.0000   YY=    19.3672   ZY=    -0.0000
   XZ=    -0.0000   YZ=    -0.0000   ZZ=    25.6488
   Eigenvalues:    19.3672    24.1165    25.6488
     90  C    Isotropic =    59.2009   Anisotropy =   177.1690
   XX=     7.6492   YX=    -0.0000   ZX=    40.4406
   XY=     0.0000   YY=   177.3135   ZY=    -0.0000
   XZ=    53.2841   YZ=     0.0000   ZZ=    -7.3601
   Eigenvalues:   -47.3149    47.6040   177.3135
     91  H    Isotropic =    24.6495   Anisotropy =     8.3521
   XX=    25.8382   YX=    -0.0000   ZX=     1.7112
   XY=    -0.0000   YY=    19.8882   ZY=    -0.0000
   XZ=     4.2010   YZ=     0.0000   ZZ=    28.2222
   Eigenvalues:    19.8882    23.8428    30.2176
     92  C    Isotropic =    63.4474   Anisotropy =   175.4665
   XX=    20.1036   YX=     0.0000   ZX=    38.6049
   XY=    -0.0000   YY=   180.4251   ZY=    -0.0000
   XZ=    33.9496   YZ=    -0.0000   ZZ=   -10.1863
   Eigenvalues:   -34.3531    44.2703   180.4251
     93  H    Isotropic =    23.0827   Anisotropy =     7.3699
   XX=    27.3525   YX=    -0.0000   ZX=     2.2205
   XY=     0.0000   YY=    17.9687   ZY=    -0.0000
   XZ=     1.0158   YZ=    -0.0000   ZZ=    23.9271
   Eigenvalues:    17.9687    23.2835    27.9960
     94  C    Isotropic =    39.4197   Anisotropy =   157.1330
   XX=   -21.2361   YX=    -0.0000   ZX=   -45.2253
   XY=    -0.0000   YY=   144.1750   ZY=    -0.0000
   XZ=   -35.7047   YZ=    -0.0000   ZZ=    -4.6800
   Eigenvalues:   -54.2611    28.3451   144.1750
     95  C    Isotropic =    63.4643   Anisotropy =   175.6815
   XX=   -30.2036   YX=    -0.0000   ZX=    18.5758
   XY=     0.0000   YY=   180.5853   ZY=     0.0000
   XZ=    23.3462   YZ=    -0.0000   ZZ=    40.0112
   Eigenvalues:   -35.9850    45.7926   180.5853
     96  H    Isotropic =    23.2329   Anisotropy =     7.2109
   XX=    23.9706   YX=     0.0000   ZX=     0.8162
   XY=     0.0000   YY=    17.7085   ZY=    -0.0000
   XZ=    -0.2379   YZ=    -0.0000   ZZ=    28.0196
   Eigenvalues:    17.7085    23.9501    28.0402
     97  C    Isotropic =    40.4232   Anisotropy =   163.5373
   XX=   -60.7243   YX=    -0.0000   ZX=     8.7065
   XY=     0.0000   YY=   149.4481   ZY=     0.0000
   XZ=    -4.8799   YZ=    -0.0000   ZZ=    32.5459
   Eigenvalues:   -60.7635    32.5851   149.4481
     98  H    Isotropic =    24.2667   Anisotropy =    13.8841
   XX=    23.4121   YX=     0.0000   ZX=     0.4445
   XY=    -0.0000   YY=    16.2360   ZY=     0.0000
   XZ=    -4.3165   YZ=    -0.0000   ZZ=    33.1521
   Eigenvalues:    16.2360    23.0414    33.5228
     99  C    Isotropic =    59.2009   Anisotropy =   177.1690
   XX=     7.6492   YX=    -0.0000   ZX=   -40.4406
   XY=     0.0000   YY=   177.3135   ZY=     0.0000
   XZ=   -53.2841   YZ=    -0.0000   ZZ=    -7.3601
   Eigenvalues:   -47.3149    47.6040   177.3135
    100  H    Isotropic =    24.6495   Anisotropy =     8.3521
   XX=    25.8382   YX=    -0.0000   ZX=    -1.7112
   XY=    -0.0000   YY=    19.8882   ZY=     0.0000
   XZ=    -4.2010   YZ=    -0.0000   ZZ=    28.2222
   Eigenvalues:    19.8882    23.8428    30.2176
    101  C    Isotropic =    44.9730   Anisotropy =   204.6718
   XX=     9.5507   YX=     0.0000   ZX=    23.7404
   XY=    -0.0000   YY=   181.4208   ZY=     0.0000
   XZ=    19.3498   YZ=    -0.0000   ZZ=   -56.0526
   Eigenvalues:   -62.4955    15.9937   181.4208
    102  H    Isotropic =    23.6797   Anisotropy =     4.1367
   XX=    26.4359   YX=    -0.0000   ZX=     0.7510
   XY=    -0.0000   YY=    19.5779   ZY=     0.0000
   XZ=    -0.6551   YZ=    -0.0000   ZZ=    25.0254
   Eigenvalues:    19.5779    25.0237    26.4375
 End of Minotr F.D. properties file   721 does not exist.
 End of Minotr F.D. properties file   722 does not exist.
 End of Minotr F.D. properties file   788 does not exist.
 Leave Link 1002 at Sat Aug 31 13:31:10 2024, MaxMem= 11953766400 cpu:            8427.1 elap:             360.1
 (Enter /opt/gaussian16/g16/l601.exe)
 Copying SCF densities to generalized density rwf, IOpCl= 0 IROHF=0.
 Hyperfine terms turned off by default for NAtoms > 100.

 **********************************************************************

            Population analysis using the SCF density.

 **********************************************************************

 Orbital symmetries:
       Occupied  (B3U) (AG) (B3U) (AG) (B1G) (B2U) (B2G) (B1U)
                 (B3U) (AG) (B3U) (AG) (B1G) (B3U) (B2U) (AG) (B3U)
                 (AG) (B2G) (B1U) (B3U) (AG) (AG) (B2U) (B3U) (B1G)
                 (B1G) (B3U) (B2U) (AG) (B3U) (AG) (B2G) (B1U)
                 (B3U) (AG) (B2G) (B1U) (B3U) (B1G) (AG) (B2U)
                 (B2U) (AG) (B1G) (B3U) (B2G) (B3U) (B1U) (AG)
                 (B1G) (B3U) (B2U) (AG) (B3U) (AG) (B3U) (B1G)
                 (AG) (B2U) (B2G) (B1U) (B3U) (AG) (B2G) (B1U)
                 (B3U) (AG) (B2G) (B1U) (B3U) (AG) (B3U) (B2G)
                 (AG) (B1U) (B3U) (AG) (B1G) (B2U) (B3U) (AG) (B2G)
                 (B1U) (AG) (B3U) (AG) (B3U) (B2U) (B1G) (B2G)
                 (B1U) (AG) (AG) (B3U) (B3U) (B2U) (AG) (B2U) (B1U)
                 (B2G) (B3U) (AG) (B1G) (AG) (B2G) (B1U) (B3U)
                 (AG) (B3U) (B1G) (AG) (B3U) (B3U) (B2U) (B1U)
                 (B2G) (AG) (B1G) (AG) (B2U) (B1U) (B2G) (B3U)
                 (AG) (B2U) (B3U) (AG) (B3U) (AG) (B1U) (B2G) (B1G)
                 (B3U) (AG) (B3U) (B1U) (B2G) (B1G) (AG) (B2U)
                 (B3U) (AG) (B3U) (B2U) (B1U) (B2G) (AG) (B1U)
                 (B2G) (B1G) (AG) (B3U) (AG) (B1U) (B2U) (B2U)
                 (B3U) (AG) (B3U) (B1G) (AG) (B3U) (B3U) (B2G)
                 (B1U) (AG) (B3U) (B2G) (B1U) (B3G) (B2U) (B1G)
                 (AG) (B3U) (AG) (B1G) (B2G) (AG) (B2U) (AU) (B3U)
                 (AG) (B1U) (B3U) (B2G) (B3G) (B2U) (B1U) (B2G)
                 (B1G) (B2U) (B3U) (B1U) (AU) (AG) (B3G) (AU) (B2G)
                 (B1U) (B1G) (AG) (B1G) (B3U) (B2U) (B3U) (B1G)
                 (AG) (B2G) (B1U) (B2U) (B3U) (B2G) (AG) (B3U)
                 (B1U) (AG) (B2G) (B3G) (B3U) (B1U) (B3G) (AG)
                 (B2U) (AU) (B3G) (B1G) (B2G) (B1U) (AU) (B2U)
                 (B1G) (B3G) (B2G) (AU) (B2U) (B1U) (B1G) (AG)
                 (B3U) (AU) (B2U) (B1G) (B3G) (B2G) (B3U) (AG)
                 (B3G) (AU)
       Virtual   (B1U) (AU) (B2U) (B1G) (B3G) (B1U) (AU) (B3G)
                 (B2G) (B3G) (AU) (B2U) (B1G) (B3G) (B1U) (AU)
                 (B1G) (B2U) (B2G) (B3G) (AU) (AU) (AG) (B3U) (B1U)
                 (AG) (B2U) (AG) (B2G) (B3U) (B2G) (B1G) (B1U)
                 (B3U) (AG) (B2U) (B3G) (AG) (B1G) (B1U) (AG) (B2U)
                 (B2G) (B3U) (B1U) (AG) (B3U) (B1G) (B3U) (AG)
                 (B1U) (AU) (B2U) (B3G) (AG) (B3U) (B2G) (B2U)
                 (B1G) (B3U) (B2U) (AG) (B3U) (B2G) (B1G) (AU)
                 (B1U) (B2G) (AG) (B3U) (B1U) (B2G) (B1G) (AG)
                 (B2G) (B3U) (B2U) (AG) (B3U) (AG) (B3U) (B1G)
                 (AG) (B3U) (B2U) (AG) (B1U) (B2G) (B3U) (B1U)
                 (B2G) (B1G) (B2U) (B3U) (AG) (AG) (B3U) (B1U)
                 (AG) (AG) (B2G) (B3U) (B1G) (B1U) (AG) (B2U) (B3U)
                 (B2G) (AG) (B2U) (B3U) (B2G) (B1U) (B1G) (B3U)
                 (AG) (B3U) (B2U) (B1G) (AG) (B3U) (B1U) (B3G)
                 (B3U) (B2G) (AG) (B1U) (B1G) (B3U) (AG) (AU) (B2G)
                 (B1U) (B2G) (AG) (B3U) (B2U) (AG) (B1G) (B3U)
                 (B1U) (B3U) (AG) (B2G) (B3U) (B1U) (B1G) (B2U)
                 (B2U) (B3G) (AG) (B1U) (B1G) (B2G) (B3G) (AG)
                 (AU) (B1U) (B2U) (B2G) (B3U) (B2U) (B1U) (AG)
                 (B1G) (B2G) (B3U) (B2U) (B1G) (AU) (B2G) (B2U)
                 (B3G) (B3U) (AG) (B1G) (AG) (AG) (B3U) (B3G) (B1U)
                 (B3U) (B2G) (AU) (B1U) (AG) (B3U) (B2U) (B1G)
                 (B1U) (AG) (AG) (B1G) (B2U) (B2G) (B3U) (B1U)
                 (AU) (B3U) (B2U) (B2G) (AG) (B1G) (B1U) (B3G)
                 (AG) (B3U) (B2U) (B1U) (B3G) (AU) (AG) (B3U) (B2G)
                 (B3G) (B2U) (B1G) (B1G) (AG) (B2G) (B2U) (B1U)
                 (AU) (B1U) (B2G) (B2U) (B1G) (B3U) (AU) (B3G)
                 (AG) (B1G) (AU) (B3U) (B3G) (B3U) (B1U) (B2G)
                 (AG) (AG) (B2G) (B3U) (B1U) (B1G) (B2U) (B2G)
                 (B3U) (B1G) (AG) (B2U) (AU) (B1U) (B3G) (B2U)
                 (B3U) (AG) (B1G) (B1G) (B2G) (AG) (B3G) (B2U)
                 (AU) (B1U) (B3U) (AG) (B1U) (B2G) (AG) (B3U) (B1G)
                 (B2U) (B1U) (B2G) (B3U) (AG) (AU) (B3U) (B2U)
                 (B3U) (B3G) (AG) (B1U) (AG) (B3G) (B3U) (B1G)
                 (AG) (AU) (B1U) (B2G) (B3U) (B2G) (AG) (B3U) (B1G)
                 (B2G) (B3U) (B1G) (B1U) (B3U) (B2U) (AG) (B2G)
                 (B1G) (B3U) (AG) (B2U) (B1U) (B2G) (AG) (B3U)
                 (B2G) (B3U) (AG) (B1U) (B3U) (B1G) (B2U) (AG)
                 (B1U) (AU) (B2G) (AG) (B3U) (B1U) (B2G) (AG) (B2U)
                 (B3U) (B3U) (B1G) (AG) (AG) (B2G) (B1U) (B3U)
                 (B1U) (B2U) (AG) (B2U) (B1G) (B3U) (B2G) (B1G)
                 (B3U) (B1U) (AG) (B1G) (B2U) (B3U) (B1U) (AG)
                 (B2G) (AG) (B2U) (B3U) (B3G) (B1U) (AG) (B2G)
                 (B1G) (B3U) (B1U) (AG) (B3U) (B3U) (AG) (AG) (B1G)
                 (B2G) (AU) (B2U) (B3G) (B1U) (B2G) (B3U) (B1G)
                 (AG) (B3G) (B1U) (B2U) (AU) (B2G) (B3G) (B1G)
                 (B2G) (B3U) (B2U) (B1U) (AU) (B3U) (B3G) (B1U)
                 (AG) (B3U) (B2G) (B2G) (AU) (B1G) (B1G) (B3U)
                 (B2U) (AU) (AG) (B2U) (B3G) (B1G) (AU) (B1U) (B3G)
                 (B2U) (B3G) (AG) (B1U) (B2G) (B2G) (AG) (B3U)
                 (B2U) (B3U) (B3G) (AU) (B1U) (B3G) (B1G) (B2G)
                 (B2U) (B1U) (AG) (B1G) (B3G) (AU) (AG) (B2U) (B3U)
                 (B3U) (AU) (B2G) (AG) (AU) (B2U) (B1U) (AG) (B3U)
                 (B3G) (B1G) (AU) (B3G) (AG) (B1U) (B3U) (B2G)
                 (B2G) (B1G) (B2U) (B3G) (AU) (B3U) (AG) (B3U)
                 (AG) (B1G) (B1U) (B3G) (B2G) (B3U) (AU) (B1G)
                 (B2U) (B2U) (B1U) (AG) (B2U) (B1U) (B1G) (B3U)
                 (AG) (B3U) (B2G) (B1G) (B1U) (B2G) (AG) (B2U)
                 (B3G) (AU) (B1G) (B3U) (AG) (B2G) (B3U) (B1U)
                 (B1G) (AG) (B2U) (AG) (B1G) (B3U) (B2U) (B2G)
                 (B1U) (B2U) (AG) (AU) (B3U) (B2G) (AG) (B1U) (B2G)
                 (B3U) (AG) (B2U) (AG) (B1G) (B3U) (B3U) (B1U)
                 (B2G) (AG) (B3U) (B1G) (AG) (B3U) (B2G) (B1U)
                 (AG) (B1G) (B3U) (B2U) (AG) (B1U) (B2G) (B3U)
                 (B2U) (B3G) (AU) (AG) (B3G) (B1G) (B1U) (B2U)
                 (B1G) (B2U) (B3G) (B3U) (AU) (B1U) (B3G) (B1G)
                 (AU) (B2G) (AG) (B2U) (B1G) (AU) (B3U) (AG) (B3G)
                 (B1U) (B2G) (B2U) (AU) (B3U) (AG) (B3U) (B1U)
                 (B2G) (AG) (B2U) (B1G) (B3U) (AG) (B1U) (B2U)
                 (B1G) (B2G) (B3G) (AU) (B3U) (B2U) (B2G) (B1U)
                 (AG) (B2G) (B3U) (B1G) (AG) (B1U) (B3U) (B3U)
                 (B1U) (B3G) (B2U) (B1G) (B2G) (AG) (B3G) (AU)
                 (B3U) (B1U) (AU) (B2G) (AG) (B1G) (AG) (B2G) (B3U)
                 (B2U) (B1U) (B3U) (B3G) (B1G) (B3G) (AU) (B2U)
                 (AU) (AG) (B1G) (B2G) (B1U) (B2U) (B2G) (B3U)
                 (B1G) (AG) (B3G) (B2U) (B2U) (B3U) (AU) (B1U)
                 (AG) (B1G) (B2U) (B2G) (B3U) (AG) (B1G) (B2G)
                 (B3G) (B3U) (B1U) (AG) (AU) (B1U) (B2G) (B2U)
                 (AG) (B3U) (AG) (B1G) (B1G) (B2U) (B1U) (B3U)
                 (B2G) (B3U) (B1U) (B1G) (B2G) (B3G) (AU) (B1U)
                 (AG) (B3G) (B3U) (B2U) (B3U) (B1G) (AG) (AG) (B1U)
                 (B1G) (B3U) (B2G) (AG) (B3U) (AU) (B2U) (B1U)
                 (B2G) (B1G) (AG) (B3G) (B2U) (AG) (AU) (B2G) (B3U)
                 (B1U) (B3U) (B2G) (B1U) (B2U) (AG) (B2G) (B3G)
                 (B1U) (B1U) (B3U) (B2G) (B1G) (AG) (B2U) (B3G)
                 (AU) (B3U) (B2U) (B1G) (AU) (B3G) (AG) (B1G) (B2G)
                 (B2U) (B3U) (AU) (B2G) (AG) (B3U) (B1U) (B3G)
                 (B1G) (B3G) (AU) (B2U) (B1U) (AU) (B2U) (AG) (B1U)
                 (B1G) (B2G) (B2G) (AU) (B3G) (AG) (B2U) (B1G)
                 (AG) (B2U) (B3U) (B3U) (AU) (B2U) (AG) (B1U) (B3G)
                 (B3U) (AG) (B2G) (B3U) (B2G) (B1U) (B1G) (B1G)
                 (AG) (B2U) (B3U) (B1G) (B3U) (B1U) (B2G) (AG)
                 (AG) (B2G) (B3U) (B1G) (B1U) (B2U) (AG) (B2G)
                 (B3U) (B1U) (B3G) (B2U) (B2G) (B1U) (AG) (AU)
                 (B3G) (AG) (B3U) (AG) (B1G) (B3U) (AU) (B3U) (B1G)
                 (AG) (B1U) (B2G) (B3U) (B2U) (B1G) (AG) (B3U)
                 (AU) (B3G) (B3U) (B1U) (B2U) (AU) (B2G) (B3G)
                 (B3U) (B2G) (AG) (B1U) (B1G) (B1U) (B3U) (B2G)
                 (B3G) (B1G) (B2U) (AG) (B1U) (B1G) (AG) (B3U)
                 (B2U) (B1U) (AU) (B3G) (B3U) (B2G) (AG) (B2U)
                 (B1G) (B2G) (AU) (B2U) (B3G) (B1G) (B1U) (AU)
                 (B2G) (AG) (B2U) (B3U) (AG) (B1G) (AG) (B2U) (B3U)
                 (B2G) (B3G) (B1G) (AG) (B1U) (AG) (B3U) (B1U)
                 (B2G) (AG) (B3U) (B2U) (AU) (B1U) (B2G) (AG) (B3U)
                 (B3U) (AG) (B1G) (AU) (B3G) (AG) (B2U) (B1U) (B2G)
                 (B3U) (B3G) (B3U) (AG) (B1U) (AG) (AU) (B3U) (B2U)
                 (B1G) (AG) (B3U) (B3U) (B1U) (B3G) (B1G) (B2U)
                 (B2U) (B1G) (AG) (AU) (B2G) (B1U) (B2G) (B1G)
                 (AG) (B1U) (B3U) (AU) (B3G) (B2G) (B3U) (B2G)
                 (B1U) (AG) (B2U) (B3U) (AU) (B3G) (B2G) (B1G)
                 (B3U) (B1U) (AG) (B3U) (B3G) (B1G) (B2U) (B1G)
                 (B2G) (AU) (B1U) (B1U) (B2G) (AU) (AG) (B2U) (B3U)
                 (AG) (B2U) (B1G) (B3U) (B2G) (B1G) (AG) (B2G)
                 (B3G) (B1U) (B3U) (B3G) (AU) (B1U) (AG) (B2G)
                 (B2U) (B3G) (B3U) (AU) (B1U) (B1G) (B3U) (B2U)
                 (B1G) (B1G) (B3G) (AU) (B2G) (B2U) (AG) (AU) (B2G)
                 (AG) (B3U) (B2U) (AG) (B1U) (B2G) (B3U) (AG) (B2U)
                 (B1U) (B2G) (AG) (B1U) (B2G) (AG) (B3U) (B3U)
                 (B1U) (B1G) (B2G) (B2U) (AG) (B3U) (B3U) (B2U)
                 (B1G) (B3U) (AG) (B2U) (AG) (B1U) (B3U) (B2G)
                 (B1G) (B1G) (B3U) (AG) (B1U) (B2G) (B3U) (B2U)
                 (AG) (B3U) (AG) (B1U) (B2G) (AG) (B3U) (B1G) (B2U)
                 (AG) (B3U) (B1U) (B2G) (AG) (AG) (B3U) (B3U) (B1G)
                 (AG) (B3U) (B1U) (B1G) (B2G) (B3U) (AG) (B2U)
                 (AG) (B3U) (B3U) (AG) (B2U) (B1U) (B1G) (AG) (B3G)
                 (AU) (B2G) (B3U) (B1U) (B2U) (B1G) (B2G) (B1U)
                 (AG) (B3U) (B1U) (B2G) (AG) (B2U) (B2U) (B1G)
                 (B3U) (AG) (B1G) (B1U) (B3G) (B2G) (B3U) (B1G)
                 (AU) (B2G) (B2U) (AG) (B3U) (B1G) (AG) (B1U) (B3U)
                 (B2G) (AG) (B3U) (B3U) (AG) (B1U) (B2G) (AG) (B3U)
                 (B2U) (B1U) (B1G) (B3U) (B2G) (AG) (B3U) (AG)
                 (B2U) (B3G) (AU) (AG) (B3U) (B1U) (B1G) (B2G)
                 (B1U) (B2G) (B2U) (B2U) (B3U) (B1G) (AG) (B3U)
                 (B1U) (AG) (B2G) (AG) (B1U) (B2G) (B3U) (AG) (B3U)
                 (B2U) (AG) (B1G) (B3U) (AG) (B3U) (B1G) (B3U)
                 (B1U) (B2G) (AG) (B3U) (B1G) (B3U) (B2U) (AG)
                 (B1U) (B2G) (B1G) (AG) (B3U) (B3U) (B2U) (B1U)
                 (B2G) (B1G) (B3G) (AU) (B2U) (B1G) (B1U) (B2G)
                 (AG) (B3U) (AG) (B3U) (B2U) (B1G) (B1U) (B2G)
                 (AG) (B3U) (AG) (B2U) (AG) (B3U) (B1U) (B2G) (B3U)
                 (B1G) (AG) (B3U) (B2U) (AG) (B1U) (B2G) (AG) (B3U)
                 (B1U) (B2G) (AG) (B2U) (B1G) (B3U) (B2U) (AG)
                 (B3U) (B3U) (AG) (B1G) (B1U) (AG) (B3U) (B2G)
                 (B2U) (AG) (B3U) (B1G) (B1U) (B2G) (AG) (B3U)
                 (B1U) (B2G) (B1G) (B3U) (B2U) (AG) (B3U) (B1G)
                 (AG) (B3U) (B1U) (B2G) (AG) (B3U) (AG) (B3U) (AG)
                 (B3U) (AG) (B2U) (B1U) (B2G) (B3U) (B1G) (AG)
                 (AG) (B3U) (B3U) (B2U) (B1G) (B1U) (B2G) (AG)
                 (B3U) (AG) (B3U) (AG) (B3U)
 The electronic state is 1-AG.
 Alpha  occ. eigenvalues -- -346.97924-346.97924 -41.99152 -41.99152 -36.96761
 Alpha  occ. eigenvalues --  -36.96761 -36.96525 -36.96525 -36.96475 -36.96475
 Alpha  occ. eigenvalues --  -14.35542 -14.35541 -14.31348 -14.31348 -14.31347
 Alpha  occ. eigenvalues --  -14.31347 -14.31042 -14.31042 -14.30849 -14.30849
 Alpha  occ. eigenvalues --  -14.30849 -14.30849 -10.23650 -10.23649 -10.23599
 Alpha  occ. eigenvalues --  -10.23599 -10.21563 -10.21563 -10.21563 -10.21563
 Alpha  occ. eigenvalues --  -10.21027 -10.21027 -10.21027 -10.21027 -10.20491
 Alpha  occ. eigenvalues --  -10.20491 -10.20491 -10.20491 -10.19899 -10.19899
 Alpha  occ. eigenvalues --  -10.19899 -10.19899 -10.19534 -10.19534 -10.19507
 Alpha  occ. eigenvalues --  -10.19507 -10.19172 -10.19172 -10.19172 -10.19172
 Alpha  occ. eigenvalues --  -10.17851 -10.17851 -10.17851 -10.17851 -10.17058
 Alpha  occ. eigenvalues --  -10.17058 -10.16772 -10.16772 -10.16772 -10.16772
 Alpha  occ. eigenvalues --  -10.16568 -10.16568 -10.16566 -10.16566 -10.16548
 Alpha  occ. eigenvalues --  -10.16548 -10.16548 -10.16548 -10.16178 -10.16178
 Alpha  occ. eigenvalues --  -10.16178 -10.16178 -10.15669 -10.15669 -10.15669
 Alpha  occ. eigenvalues --  -10.15669  -4.75870  -4.75870  -3.15109  -3.15109
 Alpha  occ. eigenvalues --   -3.14870  -3.14870  -3.14787  -3.14787  -1.05630
 Alpha  occ. eigenvalues --   -1.00671  -1.00584  -1.00080  -0.99393  -0.98464
 Alpha  occ. eigenvalues --   -0.98147  -0.98146  -0.98124  -0.96609  -0.96609
 Alpha  occ. eigenvalues --   -0.96233  -0.89651  -0.87778  -0.86177  -0.83762
 Alpha  occ. eigenvalues --   -0.83761  -0.83487  -0.83483  -0.82978  -0.82669
 Alpha  occ. eigenvalues --   -0.82601  -0.82601  -0.82435  -0.82232  -0.82224
 Alpha  occ. eigenvalues --   -0.80805  -0.79540  -0.79536  -0.78543  -0.78266
 Alpha  occ. eigenvalues --   -0.76269  -0.76267  -0.74991  -0.71822  -0.70047
 Alpha  occ. eigenvalues --   -0.69937  -0.69290  -0.69290  -0.68288  -0.68287
 Alpha  occ. eigenvalues --   -0.66750  -0.66519  -0.66443  -0.66248  -0.66214
 Alpha  occ. eigenvalues --   -0.65328  -0.65322  -0.64198  -0.63864  -0.62816
 Alpha  occ. eigenvalues --   -0.62813  -0.62688  -0.62678  -0.61646  -0.60234
 Alpha  occ. eigenvalues --   -0.60045  -0.58057  -0.57806  -0.56638  -0.56497
 Alpha  occ. eigenvalues --   -0.54401  -0.54286  -0.53919  -0.53383  -0.53378
 Alpha  occ. eigenvalues --   -0.53192  -0.52870  -0.52616  -0.52438  -0.51946
 Alpha  occ. eigenvalues --   -0.51648  -0.51410  -0.51329  -0.51050  -0.50946
 Alpha  occ. eigenvalues --   -0.50258  -0.50229  -0.50220  -0.49587  -0.48734
 Alpha  occ. eigenvalues --   -0.48710  -0.48663  -0.48563  -0.48519  -0.48311
 Alpha  occ. eigenvalues --   -0.47425  -0.47414  -0.47318  -0.47171  -0.47153
 Alpha  occ. eigenvalues --   -0.47117  -0.46522  -0.46428  -0.46354  -0.46298
 Alpha  occ. eigenvalues --   -0.46206  -0.46134  -0.46043  -0.45819  -0.45763
 Alpha  occ. eigenvalues --   -0.45468  -0.45402  -0.45085  -0.44897  -0.44576
 Alpha  occ. eigenvalues --   -0.44417  -0.43816  -0.43743  -0.43729  -0.43382
 Alpha  occ. eigenvalues --   -0.43036  -0.42916  -0.42893  -0.42649  -0.42641
 Alpha  occ. eigenvalues --   -0.42543  -0.41923  -0.41682  -0.41669  -0.41644
 Alpha  occ. eigenvalues --   -0.41276  -0.40629  -0.40555  -0.40306  -0.40281
 Alpha  occ. eigenvalues --   -0.40220  -0.40203  -0.39542  -0.39331  -0.38818
 Alpha  occ. eigenvalues --   -0.38648  -0.38575  -0.38404  -0.37477  -0.36521
 Alpha  occ. eigenvalues --   -0.36286  -0.36038  -0.35637  -0.34045  -0.33840
 Alpha  occ. eigenvalues --   -0.33824  -0.33803  -0.33361  -0.33213  -0.32726
 Alpha  occ. eigenvalues --   -0.32479  -0.32383  -0.31844  -0.31773  -0.31770
 Alpha  occ. eigenvalues --   -0.31536  -0.31487  -0.31477  -0.29610  -0.29535
 Alpha  occ. eigenvalues --   -0.29339  -0.29295  -0.29291  -0.28055  -0.27908
 Alpha  occ. eigenvalues --   -0.27598  -0.27360  -0.26567  -0.26565
 Alpha virt. eigenvalues --   -0.18093  -0.13965  -0.12136  -0.12134  -0.11444
 Alpha virt. eigenvalues --   -0.11294  -0.11108  -0.10856  -0.10425  -0.08102
 Alpha virt. eigenvalues --   -0.07918  -0.07413  -0.07405  -0.07267  -0.06391
 Alpha virt. eigenvalues --   -0.05594  -0.04876  -0.04873  -0.04417  -0.01608
 Alpha virt. eigenvalues --   -0.01598  -0.00626   0.00515   0.02495   0.02769
 Alpha virt. eigenvalues --    0.02959   0.03635   0.03699   0.04482   0.04572
 Alpha virt. eigenvalues --    0.04817   0.05032   0.05233   0.05511   0.05690
 Alpha virt. eigenvalues --    0.06030   0.06038   0.06065   0.06071   0.06094
 Alpha virt. eigenvalues --    0.06750   0.07052   0.07263   0.07551   0.07778
 Alpha virt. eigenvalues --    0.08322   0.08581   0.09151   0.09184   0.09470
 Alpha virt. eigenvalues --    0.09836   0.09870   0.09874   0.09905   0.10101
 Alpha virt. eigenvalues --    0.10586   0.10641   0.12237   0.12717   0.12904
 Alpha virt. eigenvalues --    0.12964   0.13101   0.13176   0.13729   0.13835
 Alpha virt. eigenvalues --    0.13862   0.14662   0.15111   0.15395   0.15514
 Alpha virt. eigenvalues --    0.15597   0.15613   0.15863   0.15983   0.16293
 Alpha virt. eigenvalues --    0.16655   0.16965   0.17043   0.17136   0.17280
 Alpha virt. eigenvalues --    0.17654   0.17669   0.18433   0.18694   0.18711
 Alpha virt. eigenvalues --    0.19396   0.19652   0.20153   0.20287   0.20455
 Alpha virt. eigenvalues --    0.20869   0.20932   0.20970   0.21078   0.21222
 Alpha virt. eigenvalues --    0.21583   0.21930   0.22383   0.22567   0.23235
 Alpha virt. eigenvalues --    0.23378   0.23681   0.23920   0.24070   0.24353
 Alpha virt. eigenvalues --    0.24358   0.24697   0.24843   0.24883   0.25287
 Alpha virt. eigenvalues --    0.25391   0.25735   0.25840   0.26253   0.26569
 Alpha virt. eigenvalues --    0.28024   0.28094   0.28184   0.28774   0.29092
 Alpha virt. eigenvalues --    0.29467   0.29922   0.30030   0.30257   0.30314
 Alpha virt. eigenvalues --    0.30427   0.30729   0.30880   0.30880   0.31138
 Alpha virt. eigenvalues --    0.31179   0.31380   0.31678   0.31780   0.31789
 Alpha virt. eigenvalues --    0.32099   0.32111   0.32172   0.32404   0.32963
 Alpha virt. eigenvalues --    0.33342   0.33392   0.33642   0.33698   0.33856
 Alpha virt. eigenvalues --    0.34108   0.34207   0.34322   0.34479   0.34528
 Alpha virt. eigenvalues --    0.34565   0.35573   0.35835   0.35836   0.36172
 Alpha virt. eigenvalues --    0.36227   0.36282   0.36394   0.36439   0.36571
 Alpha virt. eigenvalues --    0.37076   0.37147   0.37160   0.37211   0.37259
 Alpha virt. eigenvalues --    0.37358   0.37400   0.37422   0.37960   0.38016
 Alpha virt. eigenvalues --    0.38149   0.38601   0.38645   0.38781   0.38898
 Alpha virt. eigenvalues --    0.38952   0.39002   0.39391   0.39398   0.39559
 Alpha virt. eigenvalues --    0.39573   0.39634   0.39832   0.39864   0.40045
 Alpha virt. eigenvalues --    0.40173   0.40453   0.40626   0.41037   0.41452
 Alpha virt. eigenvalues --    0.41649   0.42125   0.42408   0.42412   0.42441
 Alpha virt. eigenvalues --    0.42886   0.43130   0.43327   0.43708   0.43803
 Alpha virt. eigenvalues --    0.43911   0.43912   0.43961   0.43965   0.44106
 Alpha virt. eigenvalues --    0.44127   0.44599   0.44830   0.45475   0.45519
 Alpha virt. eigenvalues --    0.45983   0.46174   0.46190   0.46279   0.47547
 Alpha virt. eigenvalues --    0.48098   0.48187   0.48526   0.48754   0.49149
 Alpha virt. eigenvalues --    0.49246   0.49675   0.49684   0.49738   0.49973
 Alpha virt. eigenvalues --    0.50329   0.50449   0.50460   0.50919   0.51764
 Alpha virt. eigenvalues --    0.51918   0.52077   0.52395   0.52940   0.52998
 Alpha virt. eigenvalues --    0.53811   0.53863   0.54062   0.54288   0.54509
 Alpha virt. eigenvalues --    0.55623   0.55710   0.55719   0.55925   0.55984
 Alpha virt. eigenvalues --    0.56005   0.56121   0.56271   0.56313   0.56388
 Alpha virt. eigenvalues --    0.56808   0.56833   0.57056   0.57196   0.57490
 Alpha virt. eigenvalues --    0.57688   0.58165   0.58335   0.58349   0.58541
 Alpha virt. eigenvalues --    0.58622   0.58784   0.59131   0.59183   0.59263
 Alpha virt. eigenvalues --    0.59318   0.59435   0.59685   0.59758   0.59806
 Alpha virt. eigenvalues --    0.60135   0.60148   0.60676   0.60691   0.60729
 Alpha virt. eigenvalues --    0.61059   0.61102   0.61247   0.61577   0.61704
 Alpha virt. eigenvalues --    0.61910   0.62093   0.62664   0.62943   0.63000
 Alpha virt. eigenvalues --    0.63585   0.63778   0.64672   0.64693   0.64882
 Alpha virt. eigenvalues --    0.65030   0.65281   0.65808   0.66028   0.66510
 Alpha virt. eigenvalues --    0.66644   0.67611   0.68784   0.69189   0.69341
 Alpha virt. eigenvalues --    0.69465   0.69469   0.69491   0.69532   0.69773
 Alpha virt. eigenvalues --    0.69978   0.70329   0.70459   0.70490   0.71009
 Alpha virt. eigenvalues --    0.71312   0.71761   0.72367   0.72388   0.72499
 Alpha virt. eigenvalues --    0.72745   0.72838   0.73012   0.73455   0.73608
 Alpha virt. eigenvalues --    0.73968   0.74518   0.74531   0.74842   0.75200
 Alpha virt. eigenvalues --    0.75299   0.75502   0.75514   0.76175   0.76179
 Alpha virt. eigenvalues --    0.76676   0.76817   0.76928   0.77733   0.77887
 Alpha virt. eigenvalues --    0.78276   0.78450   0.78585   0.78602   0.79127
 Alpha virt. eigenvalues --    0.79343   0.79592   0.80565   0.80912   0.80972
 Alpha virt. eigenvalues --    0.81304   0.81857   0.82043   0.82059   0.82389
 Alpha virt. eigenvalues --    0.82483   0.82602   0.82766   0.82814   0.83267
 Alpha virt. eigenvalues --    0.83611   0.84351   0.84466   0.85345   0.85482
 Alpha virt. eigenvalues --    0.85609   0.85817   0.86101   0.86125   0.86217
 Alpha virt. eigenvalues --    0.86625   0.87680   0.87789   0.88265   0.88297
 Alpha virt. eigenvalues --    0.88620   0.88762   0.88785   0.89435   0.89452
 Alpha virt. eigenvalues --    0.90058   0.91191   0.91429   0.91494   0.91718
 Alpha virt. eigenvalues --    0.92502   0.92537   0.93038   0.93146   0.93212
 Alpha virt. eigenvalues --    0.93236   0.93999   0.94174   0.94422   0.95174
 Alpha virt. eigenvalues --    0.95489   0.95705   0.95827   0.96560   0.97015
 Alpha virt. eigenvalues --    0.97359   0.97410   0.97509   0.97657   0.97774
 Alpha virt. eigenvalues --    0.97958   0.98029   0.98271   0.98764   0.98781
 Alpha virt. eigenvalues --    0.98903   0.99004   0.99438   0.99542   0.99552
 Alpha virt. eigenvalues --    0.99596   0.99912   0.99993   1.00022   1.00115
 Alpha virt. eigenvalues --    1.00181   1.00815   1.00844   1.00954   1.01180
 Alpha virt. eigenvalues --    1.01184   1.01492   1.01507   1.02197   1.03190
 Alpha virt. eigenvalues --    1.03369   1.03521   1.03597   1.03599   1.04726
 Alpha virt. eigenvalues --    1.05309   1.05396   1.05493   1.05962   1.06210
 Alpha virt. eigenvalues --    1.06486   1.07822   1.08319   1.08394   1.08543
 Alpha virt. eigenvalues --    1.09733   1.09991   1.10077   1.10546   1.10574
 Alpha virt. eigenvalues --    1.11140   1.11255   1.11271   1.11841   1.12360
 Alpha virt. eigenvalues --    1.12742   1.12928   1.13187   1.13503   1.13566
 Alpha virt. eigenvalues --    1.13662   1.13787   1.13853   1.14894   1.14896
 Alpha virt. eigenvalues --    1.15962   1.16093   1.16663   1.17200   1.17502
 Alpha virt. eigenvalues --    1.17732   1.17974   1.18321   1.18709   1.18877
 Alpha virt. eigenvalues --    1.19378   1.20178   1.20558   1.21495   1.21613
 Alpha virt. eigenvalues --    1.21781   1.22855   1.23302   1.23437   1.23530
 Alpha virt. eigenvalues --    1.23977   1.24347   1.24625   1.25022   1.26651
 Alpha virt. eigenvalues --    1.27445   1.28391   1.30068   1.30582   1.32668
 Alpha virt. eigenvalues --    1.33170   1.33427   1.33608   1.34270   1.34408
 Alpha virt. eigenvalues --    1.35157   1.35424   1.36036   1.36457   1.36517
 Alpha virt. eigenvalues --    1.37096   1.37504   1.38186   1.39327   1.39664
 Alpha virt. eigenvalues --    1.39866   1.40276   1.40382   1.40778   1.41240
 Alpha virt. eigenvalues --    1.41345   1.41589   1.41879   1.41892   1.42008
 Alpha virt. eigenvalues --    1.42386   1.42626   1.43272   1.43372   1.43374
 Alpha virt. eigenvalues --    1.43602   1.44146   1.44727   1.45101   1.45512
 Alpha virt. eigenvalues --    1.45603   1.46407   1.46852   1.47014   1.47116
 Alpha virt. eigenvalues --    1.47351   1.47435   1.48051   1.48512   1.48866
 Alpha virt. eigenvalues --    1.48965   1.49009   1.49073   1.49384   1.49678
 Alpha virt. eigenvalues --    1.49713   1.50089   1.50910   1.51301   1.51559
 Alpha virt. eigenvalues --    1.51658   1.51897   1.52005   1.52296   1.53109
 Alpha virt. eigenvalues --    1.53498   1.53716   1.53920   1.54106   1.54142
 Alpha virt. eigenvalues --    1.54227   1.54283   1.55143   1.55143   1.55214
 Alpha virt. eigenvalues --    1.55417   1.55537   1.56528   1.56706   1.56873
 Alpha virt. eigenvalues --    1.57218   1.57249   1.57472   1.57634   1.57699
 Alpha virt. eigenvalues --    1.58294   1.59382   1.60385   1.60408   1.60636
 Alpha virt. eigenvalues --    1.60968   1.60978   1.61176   1.61397   1.61540
 Alpha virt. eigenvalues --    1.61762   1.61860   1.61958   1.62221   1.62484
 Alpha virt. eigenvalues --    1.62657   1.63992   1.64850   1.65172   1.65382
 Alpha virt. eigenvalues --    1.65894   1.65911   1.65950   1.66117   1.66411
 Alpha virt. eigenvalues --    1.66848   1.66889   1.66979   1.67021   1.67844
 Alpha virt. eigenvalues --    1.68644   1.68710   1.69039   1.69270   1.69920
 Alpha virt. eigenvalues --    1.70146   1.70219   1.70366   1.70956   1.71226
 Alpha virt. eigenvalues --    1.71371   1.71430   1.72145   1.72259   1.72401
 Alpha virt. eigenvalues --    1.72778   1.72787   1.72834   1.73199   1.73359
 Alpha virt. eigenvalues --    1.73643   1.73924   1.74481   1.74875   1.74890
 Alpha virt. eigenvalues --    1.74984   1.75405   1.75424   1.75783   1.76007
 Alpha virt. eigenvalues --    1.76083   1.77275   1.77600   1.77652   1.77675
 Alpha virt. eigenvalues --    1.78050   1.78236   1.78925   1.79128   1.79131
 Alpha virt. eigenvalues --    1.79290   1.79835   1.80139   1.80442   1.80601
 Alpha virt. eigenvalues --    1.81104   1.81402   1.81622   1.81980   1.82039
 Alpha virt. eigenvalues --    1.82183   1.82184   1.82744   1.82763   1.83044
 Alpha virt. eigenvalues --    1.83463   1.84784   1.85466   1.85711   1.86108
 Alpha virt. eigenvalues --    1.86324   1.86600   1.86619   1.87402   1.87692
 Alpha virt. eigenvalues --    1.87761   1.87859   1.89761   1.89878   1.89922
 Alpha virt. eigenvalues --    1.90112   1.90961   1.91020   1.91227   1.91427
 Alpha virt. eigenvalues --    1.91676   1.92479   1.92584   1.93019   1.93138
 Alpha virt. eigenvalues --    1.93290   1.93369   1.93667   1.94109   1.94370
 Alpha virt. eigenvalues --    1.94371   1.94454   1.94466   1.94840   1.94858
 Alpha virt. eigenvalues --    1.95170   1.95360   1.95778   1.95809   1.95967
 Alpha virt. eigenvalues --    1.96188   1.96872   1.98023   1.98228   1.98801
 Alpha virt. eigenvalues --    1.99287   1.99900   1.99916   2.00065   2.00417
 Alpha virt. eigenvalues --    2.00504   2.00512   2.01496   2.01766   2.02050
 Alpha virt. eigenvalues --    2.02652   2.02676   2.03090   2.03581   2.03760
 Alpha virt. eigenvalues --    2.03910   2.04507   2.04591   2.06100   2.06610
 Alpha virt. eigenvalues --    2.07578   2.09216   2.09612   2.10176   2.11111
 Alpha virt. eigenvalues --    2.11239   2.11911   2.12330   2.12609   2.13125
 Alpha virt. eigenvalues --    2.13218   2.13750   2.13812   2.14026   2.14637
 Alpha virt. eigenvalues --    2.14665   2.14699   2.15202   2.15250   2.16423
 Alpha virt. eigenvalues --    2.16600   2.16603   2.16711   2.17248   2.18529
 Alpha virt. eigenvalues --    2.18606   2.18661   2.19044   2.20040   2.20293
 Alpha virt. eigenvalues --    2.20438   2.20744   2.21389   2.21589   2.23796
 Alpha virt. eigenvalues --    2.23858   2.24200   2.25335   2.25362   2.25464
 Alpha virt. eigenvalues --    2.26456   2.26915   2.27249   2.27636   2.27977
 Alpha virt. eigenvalues --    2.29604   2.29636   2.30191   2.30338   2.30341
 Alpha virt. eigenvalues --    2.31245   2.31543   2.32251   2.32262   2.33146
 Alpha virt. eigenvalues --    2.33390   2.33404   2.33509   2.33993   2.34245
 Alpha virt. eigenvalues --    2.34340   2.34373   2.34520   2.35853   2.36658
 Alpha virt. eigenvalues --    2.37176   2.37826   2.38425   2.39308   2.39580
 Alpha virt. eigenvalues --    2.40018   2.41009   2.41213   2.41496   2.42018
 Alpha virt. eigenvalues --    2.42528   2.44531   2.44591   2.44745   2.44835
 Alpha virt. eigenvalues --    2.45516   2.46480   2.46609   2.46623   2.46630
 Alpha virt. eigenvalues --    2.47179   2.47232   2.47653   2.47902   2.47926
 Alpha virt. eigenvalues --    2.48016   2.50434   2.50572   2.51188   2.51275
 Alpha virt. eigenvalues --    2.51810   2.51875   2.52838   2.52891   2.53120
 Alpha virt. eigenvalues --    2.53616   2.53677   2.53955   2.54688   2.55058
 Alpha virt. eigenvalues --    2.55252   2.55397   2.55623   2.55720   2.55927
 Alpha virt. eigenvalues --    2.56070   2.56460   2.57153   2.57495   2.57770
 Alpha virt. eigenvalues --    2.58003   2.59242   2.59480   2.59920   2.59930
 Alpha virt. eigenvalues --    2.60269   2.60307   2.60702   2.61136   2.61309
 Alpha virt. eigenvalues --    2.61401   2.61646   2.61816   2.62403   2.62638
 Alpha virt. eigenvalues --    2.62846   2.62900   2.63296   2.63584   2.63721
 Alpha virt. eigenvalues --    2.63842   2.64684   2.65258   2.65272   2.65414
 Alpha virt. eigenvalues --    2.65486   2.65651   2.65666   2.65834   2.66137
 Alpha virt. eigenvalues --    2.66253   2.66318   2.66518   2.66582   2.66736
 Alpha virt. eigenvalues --    2.67136   2.67182   2.67208   2.67732   2.68023
 Alpha virt. eigenvalues --    2.68061   2.68306   2.70604   2.70604   2.70766
 Alpha virt. eigenvalues --    2.71349   2.71687   2.71730   2.71918   2.72099
 Alpha virt. eigenvalues --    2.73287   2.73354   2.73761   2.73777   2.74038
 Alpha virt. eigenvalues --    2.74770   2.74868   2.74973   2.75325   2.75470
 Alpha virt. eigenvalues --    2.75699   2.75739   2.76396   2.76591   2.76693
 Alpha virt. eigenvalues --    2.76720   2.76802   2.77134   2.77143   2.77362
 Alpha virt. eigenvalues --    2.77986   2.78267   2.78281   2.78745   2.78844
 Alpha virt. eigenvalues --    2.78941   2.78944   2.79011   2.79229   2.80056
 Alpha virt. eigenvalues --    2.80255   2.80527   2.81258   2.81401   2.81656
 Alpha virt. eigenvalues --    2.81917   2.82034   2.82272   2.82582   2.83949
 Alpha virt. eigenvalues --    2.84229   2.84234   2.85479   2.85938   2.86184
 Alpha virt. eigenvalues --    2.86700   2.87105   2.87372   2.88054   2.88192
 Alpha virt. eigenvalues --    2.89179   2.90357   2.90835   2.90882   2.91456
 Alpha virt. eigenvalues --    2.91699   2.91716   2.92771   2.92833   2.92944
 Alpha virt. eigenvalues --    2.93006   2.93896   2.95194   2.95306   2.95371
 Alpha virt. eigenvalues --    2.95419   2.95425   2.95484   2.95656   2.96679
 Alpha virt. eigenvalues --    2.96894   2.97013   2.97123   2.97438   2.98581
 Alpha virt. eigenvalues --    2.99720   2.99950   3.05447   3.07838   3.08487
 Alpha virt. eigenvalues --    3.08749   3.09348   3.10374   3.11978   3.12214
 Alpha virt. eigenvalues --    3.14789   3.15174   3.15242   3.16411   3.16888
 Alpha virt. eigenvalues --    3.17626   3.18369   3.18988   3.19143   3.19536
 Alpha virt. eigenvalues --    3.21226   3.22642   3.22697   3.22848   3.24470
 Alpha virt. eigenvalues --    3.25102   3.26257   3.28351   3.29595   3.30165
 Alpha virt. eigenvalues --    3.31186   3.31525   3.33133   3.33397   3.34301
 Alpha virt. eigenvalues --    3.34649   3.34868   3.35282   3.36977   3.37172
 Alpha virt. eigenvalues --    3.39003   3.39515   3.39687   3.39931   3.40554
 Alpha virt. eigenvalues --    3.40647   3.41253   3.41921   3.42518   3.42630
 Alpha virt. eigenvalues --    3.42727   3.42986   3.44032   3.45332   3.45898
 Alpha virt. eigenvalues --    3.46405   3.47298   3.47552   3.47782   3.49008
 Alpha virt. eigenvalues --    3.49046   3.51704   3.52053   3.52802   3.54208
 Alpha virt. eigenvalues --    3.55953   3.56440   3.56809   3.59627   3.59653
 Alpha virt. eigenvalues --    3.61336   3.63508   3.63959   3.70137   3.70998
 Alpha virt. eigenvalues --    3.71164   3.72579   3.72933   3.75083   3.75870
 Alpha virt. eigenvalues --    3.76205   3.76390   3.77326   3.78692   3.79613
 Alpha virt. eigenvalues --    3.80140   3.82850   3.85303   3.85745   3.85960
 Alpha virt. eigenvalues --    3.86971   3.87300   3.88997   3.89243   3.90182
 Alpha virt. eigenvalues --    3.90415   3.91539   3.92373   3.92733   3.92957
 Alpha virt. eigenvalues --    3.93850   3.93911   3.94801   3.94963   3.95237
 Alpha virt. eigenvalues --    3.95633   4.01887   4.02191   4.03608   4.03997
 Alpha virt. eigenvalues --    4.04026   4.04158   4.04590   4.04608   4.05158
 Alpha virt. eigenvalues --    4.05322   4.06056   4.06180   4.07474   4.08319
 Alpha virt. eigenvalues --    4.10150   4.12043   4.14086   4.20513   4.20636
 Alpha virt. eigenvalues --    4.20717   4.20788   4.23965   4.27331   4.28627
 Alpha virt. eigenvalues --    4.29543   4.29907   4.29992   4.30040   4.30367
 Alpha virt. eigenvalues --    4.30952   4.31221   4.31276   4.31536   4.32155
 Alpha virt. eigenvalues --    4.32500   4.35465   4.35478   4.35536   4.36455
 Alpha virt. eigenvalues --    4.37870   4.38559   4.38933   4.39388   4.48624
 Alpha virt. eigenvalues --    4.49296   4.49807   4.50224   4.53909   4.55228
 Alpha virt. eigenvalues --    4.55530   4.55577   4.56172   4.56183   4.57471
 Alpha virt. eigenvalues --    4.59018   4.59770   4.64034   4.71780   4.72075
 Alpha virt. eigenvalues --    4.73274   4.79307   4.86184   4.88932   4.99330
 Alpha virt. eigenvalues --    5.15197   5.16075   5.16135   5.18798   5.21684
 Alpha virt. eigenvalues --    5.21891   5.24106   5.24138   5.32522   5.32733
 Alpha virt. eigenvalues --    5.38599   7.67538   7.67779   7.76539   7.77602
 Alpha virt. eigenvalues --    7.81396   7.82239   8.03128   8.05275   8.15543
 Alpha virt. eigenvalues --    8.18313  10.21570  10.24178  10.39891  10.40128
 Alpha virt. eigenvalues --   10.49235  10.59924  23.53693  23.60838  23.67747
 Alpha virt. eigenvalues --   23.68300  23.76329  23.76617  23.81517  23.81881
 Alpha virt. eigenvalues --   23.83546  23.83785  23.84377  23.86168  23.93212
 Alpha virt. eigenvalues --   23.93351  23.95043  23.95146  23.95777  23.95990
 Alpha virt. eigenvalues --   23.96378  23.96681  23.96811  23.97484  24.04907
 Alpha virt. eigenvalues --   24.05027  24.05153  24.05704  24.05798  24.06761
 Alpha virt. eigenvalues --   24.07604  24.07626  24.07735  24.07755  24.08200
 Alpha virt. eigenvalues --   24.08376  24.09780  24.09836  24.14055  24.14058
 Alpha virt. eigenvalues --   24.16008  24.16023  24.16041  24.16069  24.16446
 Alpha virt. eigenvalues --   24.18419  24.19925  24.19975  24.21821  24.21914
 Alpha virt. eigenvalues --   24.22430  24.22485  24.23569  24.23611  24.24426
 Alpha virt. eigenvalues --   24.24508  34.62173  34.65119  35.64621  35.72150
 Alpha virt. eigenvalues --   35.72205  35.74085  35.74158  35.74173  35.75370
 Alpha virt. eigenvalues --   35.75432  35.75682  35.79297  35.79333  35.84335
 Alpha virt. eigenvalues --   44.36602  44.38425  44.51736  44.51895  44.59972
 Alpha virt. eigenvalues --   44.67709 188.11735 188.14079 980.29309 980.31703
          Condensed to atoms (all electrons):
 Mulliken charges:
               1
     1  Zn   1.669557
     2  N   -0.642707
     3  N   -0.690531
     4  N   -0.642707
     5  N   -0.813760
     6  C   -0.041440
     7  C    0.375221
     8  N   -0.835228
     9  C    0.216406
    10  C    0.302284
    11  C    0.138142
    12  H    0.135848
    13  C   -0.041440
    14  N   -0.690531
    15  C    0.216406
    16  C    0.244667
    17  C   -0.081329
    18  H    0.137546
    19  C    0.302284
    20  C   -0.085206
    21  H    0.136750
    22  C    0.039730
    23  H    0.139232
    24  C    0.169887
    25  H    0.159536
    26  C    0.138142
    27  H    0.135848
    28  C    0.031065
    29  H    0.141210
    30  C   -0.183097
    31  H    0.135427
    32  C    0.375221
    33  C    0.180058
    34  H    0.149747
    35  C   -0.081329
    36  H    0.137546
    37  C    0.180058
    38  H    0.149747
    39  C    0.244667
    40  C   -0.175257
    41  H    0.142663
    42  C   -0.175257
    43  H    0.142663
    44  C   -0.085206
    45  H    0.136750
    46  C    0.169887
    47  H    0.159536
    48  C   -0.183097
    49  H    0.135427
    50  C    0.039730
    51  H    0.139232
    52  N   -0.642707
    53  N   -0.642707
    54  C   -0.041440
    55  C    0.375221
    56  N   -0.835228
    57  C    0.216406
    58  C    0.138142
    59  H    0.135848
    60  C   -0.041440
    61  C    0.216406
    62  C    0.138142
    63  H    0.135848
    64  C    0.375221
    65  C    0.180058
    66  H    0.149747
    67  C    0.180058
    68  H    0.149747
    69  C   -0.175257
    70  H    0.142663
    71  C   -0.175257
    72  H    0.142663
    73  Zn   1.669557
    74  N   -0.690531
    75  N   -0.813760
    76  C    0.302284
    77  N   -0.690531
    78  C    0.244667
    79  C   -0.081329
    80  H    0.137546
    81  C    0.302284
    82  C   -0.085206
    83  H    0.136750
    84  C    0.039730
    85  H    0.139232
    86  C    0.169887
    87  H    0.159536
    88  C    0.031065
    89  H    0.141210
    90  C   -0.183097
    91  H    0.135427
    92  C   -0.081329
    93  H    0.137546
    94  C    0.244667
    95  C   -0.085206
    96  H    0.136750
    97  C    0.169887
    98  H    0.159536
    99  C   -0.183097
   100  H    0.135427
   101  C    0.039730
   102  H    0.139232
 Sum of Mulliken charges =   4.00000
 Mulliken charges with hydrogens summed into heavy atoms:
               1
     1  Zn   1.669557
     2  N   -0.642707
     3  N   -0.690531
     4  N   -0.642707
     5  N   -0.813760
     6  C   -0.041440
     7  C    0.375221
     8  N   -0.835228
     9  C    0.216406
    10  C    0.302284
    11  C    0.273990
    13  C   -0.041440
    14  N   -0.690531
    15  C    0.216406
    16  C    0.244667
    17  C    0.056217
    19  C    0.302284
    20  C    0.051544
    22  C    0.178962
    24  C    0.329423
    26  C    0.273990
    28  C    0.172276
    30  C   -0.047670
    32  C    0.375221
    33  C    0.329805
    35  C    0.056217
    37  C    0.329805
    39  C    0.244667
    40  C   -0.032594
    42  C   -0.032594
    44  C    0.051544
    46  C    0.329423
    48  C   -0.047670
    50  C    0.178962
    52  N   -0.642707
    53  N   -0.642707
    54  C   -0.041440
    55  C    0.375221
    56  N   -0.835228
    57  C    0.216406
    58  C    0.273990
    60  C   -0.041440
    61  C    0.216406
    62  C    0.273990
    64  C    0.375221
    65  C    0.329805
    67  C    0.329805
    69  C   -0.032594
    71  C   -0.032594
    73  Zn   1.669557
    74  N   -0.690531
    75  N   -0.813760
    76  C    0.302284
    77  N   -0.690531
    78  C    0.244667
    79  C    0.056217
    81  C    0.302284
    82  C    0.051544
    84  C    0.178962
    86  C    0.329423
    88  C    0.172276
    90  C   -0.047670
    92  C    0.056217
    94  C    0.244667
    95  C    0.051544
    97  C    0.329423
    99  C   -0.047670
   101  C    0.178962
 Electronic spatial extent (au):  <R**2>=          46286.3865
 Charge=              4.0000 electrons
 Dipole moment (field-independent basis, Debye):
    X=              0.0000    Y=             -0.0000    Z=             -0.0000  Tot=              0.0000
 Quadrupole moment (field-independent basis, Debye-Ang):
   XX=             59.0765   YY=           -227.8178   ZZ=           -231.3132
   XY=              0.0000   XZ=             -0.0000   YZ=             -0.0000
 Traceless Quadrupole moment (field-independent basis, Debye-Ang):
   XX=            192.4280   YY=            -94.4663   ZZ=            -97.9617
   XY=              0.0000   XZ=             -0.0000   YZ=             -0.0000
 Octapole moment (field-independent basis, Debye-Ang**2):
  XXX=             -0.0000  YYY=             -0.0000  ZZZ=             -0.0000  XYY=             -0.0000
  XXY=             -0.0000  XXZ=              0.0000  XZZ=             -0.0000  YZZ=             -0.0000
  YYZ=              0.0000  XYZ=             -0.0000
 Hexadecapole moment (field-independent basis, Debye-Ang**3):
 XXXX=         -17880.9721 YYYY=          -6582.1404 ZZZZ=          -7001.9160 XXXY=             -0.0000
 XXXZ=              0.0000 YYYX=              0.0000 YYYZ=              0.0000 ZZZX=             -0.0000
 ZZZY=              0.0000 XXYY=          -7421.5755 XXZZ=          -4781.6425 YYZZ=          -4003.9627
 XXYZ=             -0.0000 YYXZ=              0.0000 ZZXY=             -0.0000
 N-N= 1.277316766026D+04 E-N=-4.024794473674D+04  KE= 6.282549404495D+03
 Symmetry AG   KE= 2.046324782693D+03
 Symmetry B1G  KE= 5.070997230813D+02
 Symmetry B2G  KE= 5.480103228179D+02
 Symmetry B3G  KE= 4.132929687724D+01
 Symmetry AU   KE= 3.916990933952D+01
 Symmetry B1U  KE= 5.466394549119D+02
 Symmetry B2U  KE= 5.121143919704D+02
 Symmetry B3U  KE= 2.041861522803D+03
 Leave Link  601 at Sat Aug 31 13:31:16 2024, MaxMem= 11953766400 cpu:             131.8 elap:               5.6
 (Enter /opt/gaussian16/g16/l9999.exe)
 1\1\GINC-CHPC-LINUX-11\SP\RTPSSh\6-311G(d,p)\C54H34N12Zn2(4+)\JON\31-A
 ug-2024\0\\#p nmr tpssh/6-311g** int=grid=ultrafine scf=(xqc,maxcycle=
 500,IntRep) SCRF(CPCM, SOLVENT=ACETONITRILE)\\DFT TPSSh/6-311g** nmr c
 alculation of {Ni}3+ cation optimised structure with Ni-->Zn and charg
 e 3+-->4+\\4,1\Zn,0,-3.340069,0.,0.\N,0,-2.779297,2.256317,0.\N,0,-3.7
 48356,0.,2.051909\N,0,-2.779297,-2.256317,0.\N,0,-5.330239,0.,0.\C,0,0
 .7321,3.619438,0.\C,0,-0.69212,-1.158664,0.\N,0,-1.390034,0.,0.\C,0,-1
 .423763,2.382066,0.\C,0,-5.972433,0.,1.17396\C,0,-1.537504,-4.771003,0
 .\H,0,-1.092704,-5.757434,0.\C,0,-0.7321,3.619438,0.\N,0,-3.748356,0.,
 -2.051909\C,0,-1.423763,-2.382066,0.\C,0,-5.067929,0.,2.349483\C,0,-7.
 365438,0.,1.209125\H,0,-7.903253,0.,2.146133\C,0,-5.972433,0.,-1.17396
 \C,0,-5.511927,0.,3.667659\H,0,-6.568722,0.,3.893946\C,0,-4.572599,0.,
 4.694419\H,0,-4.897596,0.,5.726901\C,0,-2.850243,0.,3.037785\H,0,-1.80
 9819,0.,2.737309\C,0,-1.537504,4.771003,0.\H,0,-1.092704,5.757434,0.\C
 ,0,-8.055792,0.,0.\H,0,-9.138059,0.,0.\C,0,-3.218894,0.,4.378446\H,0,-
 2.459377,0.,5.148298\C,0,-0.69212,1.158664,0.\C,0,-3.50091,3.369098,0.
 \H,0,-4.578273,3.2502,0.\C,0,-7.365438,0.,-1.209125\H,0,-7.903253,0.,-
 2.146133\C,0,-3.50091,-3.369098,0.\H,0,-4.578273,-3.2502,0.\C,0,-5.067
 929,0.,-2.349483\C,0,-2.916546,4.6448,0.\H,0,-3.550784,5.520844,0.\C,0
 ,-2.916546,-4.6448,0.\H,0,-3.550784,-5.520844,0.\C,0,-5.511927,0.,-3.6
 67659\H,0,-6.568722,0.,-3.893946\C,0,-2.850243,0.,-3.037785\H,0,-1.809
 819,0.,-2.737309\C,0,-3.218894,0.,-4.378446\H,0,-2.459377,0.,-5.148298
 \C,0,-4.572599,0.,-4.694419\H,0,-4.897596,0.,-5.726901\N,0,2.779297,-2
 .256317,0.\N,0,2.779297,2.256317,0.\C,0,-0.7321,-3.619438,0.\C,0,0.692
 12,1.158664,0.\N,0,1.390034,0.,0.\C,0,1.423763,-2.382066,0.\C,0,1.5375
 04,4.771003,0.\H,0,1.092704,5.757434,0.\C,0,0.7321,-3.619438,0.\C,0,1.
 423763,2.382066,0.\C,0,1.537504,-4.771003,0.\H,0,1.092704,-5.757434,0.
 \C,0,0.69212,-1.158664,0.\C,0,3.50091,-3.369098,0.\H,0,4.578273,-3.250
 2,0.\C,0,3.50091,3.369098,0.\H,0,4.578273,3.2502,0.\C,0,2.916546,-4.64
 48,0.\H,0,3.550784,-5.520844,0.\C,0,2.916546,4.6448,0.\H,0,3.550784,5.
 520844,0.\Zn,0,3.340069,0.,0.\N,0,3.748356,0.,2.051909\N,0,5.330239,0.
 ,0.\C,0,5.972433,0.,1.17396\N,0,3.748356,0.,-2.051909\C,0,5.067929,0.,
 2.349483\C,0,7.365438,0.,1.209125\H,0,7.903253,0.,2.146133\C,0,5.97243
 3,0.,-1.17396\C,0,5.511927,0.,3.667659\H,0,6.568722,0.,3.893946\C,0,4.
 572599,0.,4.694419\H,0,4.897596,0.,5.726901\C,0,2.850243,0.,3.037785\H
 ,0,1.809819,0.,2.737309\C,0,8.055792,0.,0.\H,0,9.138059,0.,0.\C,0,3.21
 8894,0.,4.378446\H,0,2.459377,0.,5.148298\C,0,7.365438,0.,-1.209125\H,
 0,7.903253,0.,-2.146133\C,0,5.067929,0.,-2.349483\C,0,5.511927,0.,-3.6
 67659\H,0,6.568722,0.,-3.893946\C,0,2.850243,0.,-3.037785\H,0,1.809819
 ,0.,-2.737309\C,0,3.218894,0.,-4.378446\H,0,2.459377,0.,-5.148298\C,0,
 4.572599,0.,-4.694419\H,0,4.897596,0.,-5.726901\\Version=ES64L-G16RevA
 .03\State=1-AG\HF=-6294.3234407\RMSD=5.564e-09\Dipole=0.,0.,0.\Quadrup
 ole=143.0654856,-70.2333499,-72.8321357,0.,0.,0.\PG=D02H [C2(H1C1N1Zn1
 N1.N1Zn1N1C1H1),SG'(C28H20N4),SG"(C24H12N4)]\\@


 A great many people think they are thinking when they
 are merely rearranging their prejudices.
                               -- William James
 Job cpu time:       0 days  7 hours 33 minutes 29.0 seconds.
 Elapsed time:       0 days  0 hours 19 minutes 10.4 seconds.
 File lengths (MBytes):  RWF=   1698 Int=      0 D2E=      0 Chk=    172 Scr=      1
 Normal termination of Gaussian 16 at Sat Aug 31 13:31:16 2024.
