86
This file was generated with SimpNMR v1.6.0 at 15:51:44 16-03-2026. NEVPT2 coordinates rotated into the susceptibility (chi) frame.
C           8.2866733      -5.5511477      14.0458954
C           8.3072674      -6.3909787      11.0401075
C          10.8474281      -5.0626857      12.2806639
C           8.7234580      -7.1916841      16.4538295
C           8.7583437      -8.5698359      17.1242454
C           7.8652267      -6.2053099      17.2528063
C           6.6858401      -7.9939347      14.2671759
C           6.6345720      -9.5199914      14.4100118
C           5.5124145      -7.3378494      15.0019809
C           7.7322302      -9.2591523      10.6303856
C           8.2364009     -10.7020340      10.5132115
C           6.7983420      -8.8974242       9.4705821
C          10.3365922      -7.9404511       9.5879945
C          11.2942253      -9.1376317       9.5609175
C           9.7669252      -7.6567486       8.1944361
C          13.5077901      -6.4909828      12.4781403
C          13.6432266      -5.9836699      11.0417532
C          14.0388380      -7.9235575      12.6079010
C          12.0454206      -5.6425974      14.9068209
C          12.7695185      -4.2931904      14.9359265
C          12.7299717      -6.6557415      15.8314090
C           8.3170657      -3.4260573      11.8100319
C           8.5158419      -2.9659197      10.4983505
C           8.1014508      -1.6980016      10.1042645
C           7.4749093      -0.8545481      11.0176270
C           7.2678466      -1.2876328      12.3228844
C           7.6852266      -2.5582264      12.7118838
Fe         10.2222736      -8.3662608      13.2407870
Cl         10.8962113     -10.3838848      14.0233008
P          11.7719734      -6.3669480      13.2011323
Si          8.9428395      -5.1349221      12.3166428
P           8.3936150      -7.3116053      14.6136051
P           9.1141858      -8.0531344      10.9961321
H           8.8566272      -4.9479676      14.7575639
H           7.2497359      -5.2153518      14.1216158
H           8.3423763      -5.9401014      10.0456019
H           7.2476132      -6.5449324      11.2647825
H          11.1199825      -5.1555121      11.2261458
H          11.1778469      -4.0692573      12.5926915
H           9.3636200      -9.2859222      16.5657042
H           9.1898498      -8.4763633      18.1244774
H           7.7559856      -8.9854726      17.2382746
H           7.8089228      -5.2209282      16.7862771
H           8.3101463      -6.0704381      18.2431368
H           6.8494828      -6.5719969      17.3987103
H           6.5829374      -7.7576318      13.2026241
H           7.4553649     -10.0133504      13.8874405
H           5.6968069      -9.8954366      13.9916418
H           6.6716306      -9.8259051      15.4563156
H           5.5307351      -6.2484627      14.9480256
H           4.5751966      -7.6701945      14.5461391
H           5.4854281      -7.6285479      16.0525506
H           7.1501877      -9.1887671      11.5539209
H           8.9233353     -10.9699123      11.3180215
H           8.7436233     -10.8731499       9.5626079
H           7.3860379     -11.3874681      10.5589740
H           6.4427013      -7.8676866       9.5232273
H           7.2756532      -9.0458342       8.5023129
H           5.9198757      -9.5482353       9.5071092
H          10.9157680      -7.0627681       9.8925838
H          11.7134385      -9.3516360      10.5455848
H          12.1243557      -8.9271605       8.8815853
H          10.7999282     -10.0410603       9.2016061
H           9.0530301      -6.8320486       8.1871828
H          10.5867953      -7.3843038       7.5236261
H           9.2789210      -8.5358316       7.7725952
H          14.1166763      -5.8452163      13.1145565
H          13.3814879      -4.9292861      10.9470393
H          14.6837675      -6.0936188      10.7239307
H          13.0278640      -6.5561064      10.3450147
H          13.9788603      -8.2996420      13.6298287
H          15.0894008      -7.9519996      12.3056011
H          13.4875409      -8.6110390      11.9631020
H          11.0303519      -5.4816194      15.2767251
H          12.2727093      -3.5342337      14.3303154
H          13.8052718      -4.3731552      14.5998480
H          12.7911023      -3.9239570      15.9651328
H          12.2166462      -7.6187343      15.8420414
H          13.7677568      -6.8292406      15.5389848
H          12.7386427      -6.2694658      16.8539459
H           9.0009823      -3.6017685       9.7653986
H           8.2661893      -1.3685004       9.0851989
H           7.1498908       0.1330031      10.7128859
H           6.7805282      -0.6376533      13.0400236
H           7.5110909      -2.8679531      13.7355601
H           9.7474469      -6.8051290      16.4500676