Mon Jul 22 17:33:32 BST 2019
node-sw-137
 Entering Gaussian System, Link 0=g16
 Initial command:
 /apps/gaussian/16/A.03/g16/l1.exe "/beegfs/scratch/user/v/es2037/Gau-97279.inp" -scrdir="/beegfs/scratch/user/v/es2037/"
 Entering Link 1 = /apps/gaussian/16/A.03/g16/l1.exe PID=     97280.
  
 Copyright (c) 1988,1990,1992,1993,1995,1998,2003,2009,2016,
            Gaussian, Inc.  All Rights Reserved.
  
 This is part of the Gaussian(R) 16 program.  It is based on
 the Gaussian(R) 09 system (copyright 2009, Gaussian, Inc.),
 the Gaussian(R) 03 system (copyright 2003, Gaussian, Inc.),
 the Gaussian(R) 98 system (copyright 1998, Gaussian, Inc.),
 the Gaussian(R) 94 system (copyright 1995, Gaussian, Inc.),
 the Gaussian 92(TM) system (copyright 1992, Gaussian, Inc.),
 the Gaussian 90(TM) system (copyright 1990, Gaussian, Inc.),
 the Gaussian 88(TM) system (copyright 1988, Gaussian, Inc.),
 the Gaussian 86(TM) system (copyright 1986, Carnegie Mellon
 University), and the Gaussian 82(TM) system (copyright 1983,
 Carnegie Mellon University). Gaussian is a federally registered
 trademark of Gaussian, Inc.
  
 This software contains proprietary and confidential information,
 including trade secrets, belonging to Gaussian, Inc.
  
 This software is provided under written license and may be
 used, copied, transmitted, or stored only in accord with that
 written license.
  
 The following legend is applicable only to US Government
 contracts under FAR:
  
                    RESTRICTED RIGHTS LEGEND
  
 Use, reproduction and disclosure by the US Government is
 subject to restrictions as set forth in subparagraphs (a)
 and (c) of the Commercial Computer Software - Restricted
 Rights clause in FAR 52.227-19.
  
 Gaussian, Inc.
 340 Quinnipiac St., Bldg. 40, Wallingford CT 06492
  
  
 ---------------------------------------------------------------
 Warning -- This program may not be used in any manner that
 competes with the business of Gaussian, Inc. or will provide
 assistance to any competitor of Gaussian, Inc.  The licensee
 of this program is prohibited from giving any competitor of
 Gaussian, Inc. access to this program.  By using this program,
 the user acknowledges that Gaussian, Inc. is engaged in the
 business of creating and licensing software in the field of
 computational chemistry and represents and warrants to the
 licensee that it is not a competitor of Gaussian, Inc. and that
 it will not use this program in any manner prohibited above.
 ---------------------------------------------------------------
  

 Cite this work as:
 Gaussian 16, Revision A.03,
 M. J. Frisch, G. W. Trucks, H. B. Schlegel, G. E. Scuseria, 
 M. A. Robb, J. R. Cheeseman, G. Scalmani, V. Barone, 
 G. A. Petersson, H. Nakatsuji, X. Li, M. Caricato, A. V. Marenich, 
 J. Bloino, B. G. Janesko, R. Gomperts, B. Mennucci, H. P. Hratchian, 
 J. V. Ortiz, A. F. Izmaylov, J. L. Sonnenberg, D. Williams-Young, 
 F. Ding, F. Lipparini, F. Egidi, J. Goings, B. Peng, A. Petrone, 
 T. Henderson, D. Ranasinghe, V. G. Zakrzewski, J. Gao, N. Rega, 
 G. Zheng, W. Liang, M. Hada, M. Ehara, K. Toyota, R. Fukuda, 
 J. Hasegawa, M. Ishida, T. Nakajima, Y. Honda, O. Kitao, H. Nakai, 
 T. Vreven, K. Throssell, J. A. Montgomery, Jr., J. E. Peralta, 
 F. Ogliaro, M. J. Bearpark, J. J. Heyd, E. N. Brothers, K. N. Kudin, 
 V. N. Staroverov, T. A. Keith, R. Kobayashi, J. Normand, 
 K. Raghavachari, A. P. Rendell, J. C. Burant, S. S. Iyengar, 
 J. Tomasi, M. Cossi, J. M. Millam, M. Klene, C. Adamo, R. Cammi, 
 J. W. Ochterski, R. L. Martin, K. Morokuma, O. Farkas, 
 J. B. Foresman, and D. J. Fox, Gaussian, Inc., Wallingford CT, 2016.
 
 ******************************************
 Gaussian 16:  ES64L-G16RevA.03 25-Dec-2016
                22-Jul-2019 
 ******************************************
 %NProcShared=16
 Will use up to   16 processors via shared memory.
 %Chk=FeH_opt_Cs_HFC.chk
 %Mem=16GB
 ----------------------------------------------------------------------
 #p prop=epr TPSSH/Gen scf=(tight) integral=(grid=ultrafine) Symmetry=N
 one
 ----------------------------------------------------------------------
 1/30=1,38=1,172=1/1;
 2/12=2,15=3,17=6,18=5,40=1/2;
 3/5=7,11=2,25=1,30=1,74=-35,75=-5/1,2,3;
 4//1;
 5/5=2,32=2,38=5/2;
 6/7=2,8=2,9=2,10=2,17=2,22=-1,26=4,28=1,82=1/1,2;
 99/5=1,9=1/99;
 Leave Link    1 at Mon Jul 22 17:33:33 2019, MaxMem=  2147483648 cpu:               7.6 elap:               0.5
 (Enter /apps/gaussian/16/A.03/g16/l101.exe)
 --
 L2
 --
 Symbolic Z-matrix:
 Charge =  0 Multiplicity = 3
 Fe                    0.        0.        0. 
 P                     0.21545   2.27554   0.08741 
 P                     0.21545  -2.27554   0.08741 
 N                    -2.01928   0.       -0.23098 
 C                    -2.77544  -1.10878  -0.63527 
 C                    -2.56495  -2.48524  -0.41042 
 C                    -3.4809   -3.38823  -0.95139 
 C                    -4.61526  -3.01363  -1.6984 
 C                    -4.83392  -1.65101  -1.8799 
 C                    -3.93864  -0.7186   -1.35237 
 C                    -3.93864   0.7186   -1.35237 
 C                    -4.83392   1.65101  -1.8799 
 C                    -4.61526   3.01363  -1.6984 
 C                    -3.4809    3.38823  -0.95139 
 C                    -2.56495   2.48524  -0.41042 
 C                    -2.77544   1.10878  -0.63527 
 C                    -1.45033   3.01426   0.45334 
 C                    -1.45033  -3.01426   0.45334 
 C                    -5.5765   -4.07112  -2.27313 
 C                    -5.10992  -5.4979   -1.9203 
 C                    -6.99417  -3.85935  -1.69292 
 C                    -5.6531   -3.96469  -3.80983 
 C                    -5.5765    4.07112  -2.27313 
 C                    -5.6531    3.96469  -3.80983 
 C                    -6.99417   3.85935  -1.69292 
 C                    -5.10992   5.4979   -1.9203 
 C                     1.25694   2.90266   1.5762 
 C                     0.51742   2.43218   2.84568 
 C                     2.65597   2.26203   1.58582 
 C                     1.39787   4.43437   1.63482 
 C                     0.79072   3.07297  -1.55837 
 C                    -0.28186   2.72238  -2.60889 
 C                     2.1201    2.45246  -2.02115 
 C                     0.9293    4.60339  -1.48825 
 C                     1.25694  -2.90266   1.5762 
 C                     0.51742  -2.43218   2.84568 
 C                     2.65597  -2.26203   1.58582 
 C                     1.39787  -4.43437   1.63482 
 C                     0.79072  -3.07297  -1.55837 
 C                    -0.28186  -2.72238  -2.60889 
 C                     2.1201   -2.45246  -2.02115 
 C                     0.9293   -4.60339  -1.48825 
 H                     1.57026   0.        0. 
 H                    -3.30318  -4.44077  -0.7616 
 H                    -5.70112  -1.29706  -2.42497 
 H                    -5.70112   1.29706  -2.42497 
 H                    -3.30318   4.44077  -0.7616 
 H                    -1.64364   2.73015   1.49155 
 H                    -1.43308   4.10448   0.4183 
 H                    -1.43308  -4.10448   0.4183 
 H                    -1.64364  -2.73015   1.49155 
 H                    -5.80116  -6.23359  -2.33991 
 H                    -5.07334  -5.65628  -0.84 
 H                    -4.1164   -5.70234  -2.32727 
 H                    -7.68919  -4.60272  -2.09688 
 H                    -7.37887  -2.86725  -1.94132 
 H                    -6.99514  -3.95327  -0.60398 
 H                    -6.34002  -4.71785  -4.20533 
 H                    -4.67444  -4.12973  -4.26807 
 H                    -6.01423  -2.98468  -4.12849 
 H                    -6.34002   4.71785  -4.20533 
 H                    -6.01423   2.98468  -4.12849 
 H                    -4.67444   4.12973  -4.26807 
 H                    -7.68919   4.60272  -2.09688 
 H                    -6.99514   3.95327  -0.60398 
 H                    -7.37887   2.86725  -1.94132 
 H                    -5.80116   6.23359  -2.33991 
 H                    -4.1164    5.70234  -2.32727 
 H                    -5.07334   5.65628  -0.84 
 H                     0.38221   1.34891   2.85878 
 H                    -0.4574    2.89943   2.95812 
 H                     1.1086    2.69966   3.72165 
 H                     2.60366   1.17663   1.51112 
 H                     3.15175   2.51671   2.52481 
 H                     3.28573   2.62549   0.77826 
 H                     1.96169   4.83461   0.79132 
 H                     1.94005   4.70724   2.54617 
 H                     0.43171   4.94021   1.67127 
 H                    -1.24576   3.16841  -2.38185 
 H                    -0.42162   1.64235  -2.70311 
 H                     0.04322   3.09931  -3.58082 
 H                     2.95864   2.742    -1.39344 
 H                     2.33409   2.80235  -3.0336 
 H                     2.07293   1.36254  -2.04384 
 H                    -0.00816   5.0863   -1.20662 
 H                     1.20475   4.98264  -2.4785 
 H                     1.70628   4.92303  -0.79188 
 H                    -0.4574   -2.89943   2.95812 
 H                     0.38221  -1.34891   2.85878 
 H                     1.1086   -2.69966   3.72165 
 H                     2.60366  -1.17663   1.51112 
 H                     3.28573  -2.62549   0.77826 
 H                     3.15175  -2.51671   2.52481 
 H                     0.43171  -4.94021   1.67127 
 H                     1.94005  -4.70724   2.54617 
 H                     1.96169  -4.83461   0.79132 
 H                    -0.42162  -1.64235  -2.70311 
 H                    -1.24576  -3.16841  -2.38185 
 H                     0.04322  -3.09931  -3.58082 
 H                     2.07293  -1.36254  -2.04384 
 H                     2.33409  -2.80235  -3.0336 
 H                     2.95864  -2.742    -1.39344 
 H                     1.70628  -4.92303  -0.79188 
 H                     1.20475  -4.98264  -2.4785 
 H                    -0.00816  -5.0863   -1.20662 
 
 ITRead=  0  0  0  0  0  0  0  0  0  0  0  0  0  0  0  0  0  0  0  0
 ITRead=  0  0  0  0  0  0  0  0  0  0  0  0  0  0  0  0  0  0  0  0
 ITRead=  0  0  0  0  0  0  0  0  0  0  0  0  0  0  0  0  0  0  0  0
 ITRead=  0  0  0  0  0  0  0  0  0  0  0  0  0  0  0  0  0  0  0  0
 ITRead=  0  0  0  0  0  0  0  0  0  0  0  0  0  0  0  0  0  0  0  0
 ITRead=  0  0  0  0  0
 MicOpt= -1 -1 -1 -1 -1 -1 -1 -1 -1 -1 -1 -1 -1 -1 -1 -1 -1 -1 -1 -1
 MicOpt= -1 -1 -1 -1 -1 -1 -1 -1 -1 -1 -1 -1 -1 -1 -1 -1 -1 -1 -1 -1
 MicOpt= -1 -1 -1 -1 -1 -1 -1 -1 -1 -1 -1 -1 -1 -1 -1 -1 -1 -1 -1 -1
 MicOpt= -1 -1 -1 -1 -1 -1 -1 -1 -1 -1 -1 -1 -1 -1 -1 -1 -1 -1 -1 -1
 MicOpt= -1 -1 -1 -1 -1 -1 -1 -1 -1 -1 -1 -1 -1 -1 -1 -1 -1 -1 -1 -1
 MicOpt= -1 -1 -1 -1 -1
 NAtoms=    105 NQM=      105 NQMF=       0 NMMI=      0 NMMIF=      0
                NMic=       0 NMicF=      0.
                    Isotopes and Nuclear Properties:
 (Nuclear quadrupole moments (NQMom) in fm**2, nuclear magnetic moments (NMagM)
  in nuclear magnetons)

  Atom         1           2           3           4           5           6           7           8           9          10
 IAtWgt=          56          31          31          14          12          12          12          12          12          12
 AtmWgt=  55.9349393  30.9737634  30.9737634  14.0030740  12.0000000  12.0000000  12.0000000  12.0000000  12.0000000  12.0000000
 NucSpn=           0           1           1           2           0           0           0           0           0           0
 AtZEff=  -0.0000000  -0.0000000  -0.0000000  -0.0000000  -0.0000000  -0.0000000  -0.0000000  -0.0000000  -0.0000000  -0.0000000
 NQMom=    0.0000000   0.0000000   0.0000000   2.0440000   0.0000000   0.0000000   0.0000000   0.0000000   0.0000000   0.0000000
 NMagM=    0.0000000   1.1316000   1.1316000   0.4037610   0.0000000   0.0000000   0.0000000   0.0000000   0.0000000   0.0000000
 AtZNuc=  26.0000000  15.0000000  15.0000000   7.0000000   6.0000000   6.0000000   6.0000000   6.0000000   6.0000000   6.0000000

  Atom        11          12          13          14          15          16          17          18          19          20
 IAtWgt=          12          12          12          12          12          12          12          12          12          12
 AtmWgt=  12.0000000  12.0000000  12.0000000  12.0000000  12.0000000  12.0000000  12.0000000  12.0000000  12.0000000  12.0000000
 NucSpn=           0           0           0           0           0           0           0           0           0           0
 AtZEff=  -0.0000000  -0.0000000  -0.0000000  -0.0000000  -0.0000000  -0.0000000  -0.0000000  -0.0000000  -0.0000000  -0.0000000
 NQMom=    0.0000000   0.0000000   0.0000000   0.0000000   0.0000000   0.0000000   0.0000000   0.0000000   0.0000000   0.0000000
 NMagM=    0.0000000   0.0000000   0.0000000   0.0000000   0.0000000   0.0000000   0.0000000   0.0000000   0.0000000   0.0000000
 AtZNuc=   6.0000000   6.0000000   6.0000000   6.0000000   6.0000000   6.0000000   6.0000000   6.0000000   6.0000000   6.0000000

  Atom        21          22          23          24          25          26          27          28          29          30
 IAtWgt=          12          12          12          12          12          12          12          12          12          12
 AtmWgt=  12.0000000  12.0000000  12.0000000  12.0000000  12.0000000  12.0000000  12.0000000  12.0000000  12.0000000  12.0000000
 NucSpn=           0           0           0           0           0           0           0           0           0           0
 AtZEff=  -0.0000000  -0.0000000  -0.0000000  -0.0000000  -0.0000000  -0.0000000  -0.0000000  -0.0000000  -0.0000000  -0.0000000
 NQMom=    0.0000000   0.0000000   0.0000000   0.0000000   0.0000000   0.0000000   0.0000000   0.0000000   0.0000000   0.0000000
 NMagM=    0.0000000   0.0000000   0.0000000   0.0000000   0.0000000   0.0000000   0.0000000   0.0000000   0.0000000   0.0000000
 AtZNuc=   6.0000000   6.0000000   6.0000000   6.0000000   6.0000000   6.0000000   6.0000000   6.0000000   6.0000000   6.0000000

  Atom        31          32          33          34          35          36          37          38          39          40
 IAtWgt=          12          12          12          12          12          12          12          12          12          12
 AtmWgt=  12.0000000  12.0000000  12.0000000  12.0000000  12.0000000  12.0000000  12.0000000  12.0000000  12.0000000  12.0000000
 NucSpn=           0           0           0           0           0           0           0           0           0           0
 AtZEff=  -0.0000000  -0.0000000  -0.0000000  -0.0000000  -0.0000000  -0.0000000  -0.0000000  -0.0000000  -0.0000000  -0.0000000
 NQMom=    0.0000000   0.0000000   0.0000000   0.0000000   0.0000000   0.0000000   0.0000000   0.0000000   0.0000000   0.0000000
 NMagM=    0.0000000   0.0000000   0.0000000   0.0000000   0.0000000   0.0000000   0.0000000   0.0000000   0.0000000   0.0000000
 AtZNuc=   6.0000000   6.0000000   6.0000000   6.0000000   6.0000000   6.0000000   6.0000000   6.0000000   6.0000000   6.0000000

  Atom        41          42          43          44          45          46          47          48          49          50
 IAtWgt=          12          12           1           1           1           1           1           1           1           1
 AtmWgt=  12.0000000  12.0000000   1.0078250   1.0078250   1.0078250   1.0078250   1.0078250   1.0078250   1.0078250   1.0078250
 NucSpn=           0           0           1           1           1           1           1           1           1           1
 AtZEff=  -0.0000000  -0.0000000  -0.0000000  -0.0000000  -0.0000000  -0.0000000  -0.0000000  -0.0000000  -0.0000000  -0.0000000
 NQMom=    0.0000000   0.0000000   0.0000000   0.0000000   0.0000000   0.0000000   0.0000000   0.0000000   0.0000000   0.0000000
 NMagM=    0.0000000   0.0000000   2.7928460   2.7928460   2.7928460   2.7928460   2.7928460   2.7928460   2.7928460   2.7928460
 AtZNuc=   6.0000000   6.0000000   1.0000000   1.0000000   1.0000000   1.0000000   1.0000000   1.0000000   1.0000000   1.0000000

  Atom        51          52          53          54          55          56          57          58          59          60
 IAtWgt=           1           1           1           1           1           1           1           1           1           1
 AtmWgt=   1.0078250   1.0078250   1.0078250   1.0078250   1.0078250   1.0078250   1.0078250   1.0078250   1.0078250   1.0078250
 NucSpn=           1           1           1           1           1           1           1           1           1           1
 AtZEff=  -0.0000000  -0.0000000  -0.0000000  -0.0000000  -0.0000000  -0.0000000  -0.0000000  -0.0000000  -0.0000000  -0.0000000
 NQMom=    0.0000000   0.0000000   0.0000000   0.0000000   0.0000000   0.0000000   0.0000000   0.0000000   0.0000000   0.0000000
 NMagM=    2.7928460   2.7928460   2.7928460   2.7928460   2.7928460   2.7928460   2.7928460   2.7928460   2.7928460   2.7928460
 AtZNuc=   1.0000000   1.0000000   1.0000000   1.0000000   1.0000000   1.0000000   1.0000000   1.0000000   1.0000000   1.0000000

  Atom        61          62          63          64          65          66          67          68          69          70
 IAtWgt=           1           1           1           1           1           1           1           1           1           1
 AtmWgt=   1.0078250   1.0078250   1.0078250   1.0078250   1.0078250   1.0078250   1.0078250   1.0078250   1.0078250   1.0078250
 NucSpn=           1           1           1           1           1           1           1           1           1           1
 AtZEff=  -0.0000000  -0.0000000  -0.0000000  -0.0000000  -0.0000000  -0.0000000  -0.0000000  -0.0000000  -0.0000000  -0.0000000
 NQMom=    0.0000000   0.0000000   0.0000000   0.0000000   0.0000000   0.0000000   0.0000000   0.0000000   0.0000000   0.0000000
 NMagM=    2.7928460   2.7928460   2.7928460   2.7928460   2.7928460   2.7928460   2.7928460   2.7928460   2.7928460   2.7928460
 AtZNuc=   1.0000000   1.0000000   1.0000000   1.0000000   1.0000000   1.0000000   1.0000000   1.0000000   1.0000000   1.0000000

  Atom        71          72          73          74          75          76          77          78          79          80
 IAtWgt=           1           1           1           1           1           1           1           1           1           1
 AtmWgt=   1.0078250   1.0078250   1.0078250   1.0078250   1.0078250   1.0078250   1.0078250   1.0078250   1.0078250   1.0078250
 NucSpn=           1           1           1           1           1           1           1           1           1           1
 AtZEff=  -0.0000000  -0.0000000  -0.0000000  -0.0000000  -0.0000000  -0.0000000  -0.0000000  -0.0000000  -0.0000000  -0.0000000
 NQMom=    0.0000000   0.0000000   0.0000000   0.0000000   0.0000000   0.0000000   0.0000000   0.0000000   0.0000000   0.0000000
 NMagM=    2.7928460   2.7928460   2.7928460   2.7928460   2.7928460   2.7928460   2.7928460   2.7928460   2.7928460   2.7928460
 AtZNuc=   1.0000000   1.0000000   1.0000000   1.0000000   1.0000000   1.0000000   1.0000000   1.0000000   1.0000000   1.0000000

  Atom        81          82          83          84          85          86          87          88          89          90
 IAtWgt=           1           1           1           1           1           1           1           1           1           1
 AtmWgt=   1.0078250   1.0078250   1.0078250   1.0078250   1.0078250   1.0078250   1.0078250   1.0078250   1.0078250   1.0078250
 NucSpn=           1           1           1           1           1           1           1           1           1           1
 AtZEff=  -0.0000000  -0.0000000  -0.0000000  -0.0000000  -0.0000000  -0.0000000  -0.0000000  -0.0000000  -0.0000000  -0.0000000
 NQMom=    0.0000000   0.0000000   0.0000000   0.0000000   0.0000000   0.0000000   0.0000000   0.0000000   0.0000000   0.0000000
 NMagM=    2.7928460   2.7928460   2.7928460   2.7928460   2.7928460   2.7928460   2.7928460   2.7928460   2.7928460   2.7928460
 AtZNuc=   1.0000000   1.0000000   1.0000000   1.0000000   1.0000000   1.0000000   1.0000000   1.0000000   1.0000000   1.0000000

  Atom        91          92          93          94          95          96          97          98          99         100
 IAtWgt=           1           1           1           1           1           1           1           1           1           1
 AtmWgt=   1.0078250   1.0078250   1.0078250   1.0078250   1.0078250   1.0078250   1.0078250   1.0078250   1.0078250   1.0078250
 NucSpn=           1           1           1           1           1           1           1           1           1           1
 AtZEff=  -0.0000000  -0.0000000  -0.0000000  -0.0000000  -0.0000000  -0.0000000  -0.0000000  -0.0000000  -0.0000000  -0.0000000
 NQMom=    0.0000000   0.0000000   0.0000000   0.0000000   0.0000000   0.0000000   0.0000000   0.0000000   0.0000000   0.0000000
 NMagM=    2.7928460   2.7928460   2.7928460   2.7928460   2.7928460   2.7928460   2.7928460   2.7928460   2.7928460   2.7928460
 AtZNuc=   1.0000000   1.0000000   1.0000000   1.0000000   1.0000000   1.0000000   1.0000000   1.0000000   1.0000000   1.0000000

  Atom       101         102         103         104         105
 IAtWgt=           1           1           1           1           1
 AtmWgt=   1.0078250   1.0078250   1.0078250   1.0078250   1.0078250
 NucSpn=           1           1           1           1           1
 AtZEff=  -0.0000000  -0.0000000  -0.0000000  -0.0000000  -0.0000000
 NQMom=    0.0000000   0.0000000   0.0000000   0.0000000   0.0000000
 NMagM=    2.7928460   2.7928460   2.7928460   2.7928460   2.7928460
 AtZNuc=   1.0000000   1.0000000   1.0000000   1.0000000   1.0000000
 Leave Link  101 at Mon Jul 22 17:33:33 2019, MaxMem=  2147483648 cpu:               2.3 elap:               0.2
 (Enter /apps/gaussian/16/A.03/g16/l202.exe)
 Symmetry turned off by external request.
 Stoichiometry    C38H63FeNP2
                          Input orientation:                          
 ---------------------------------------------------------------------
 Center     Atomic      Atomic             Coordinates (Angstroms)
 Number     Number       Type             X           Y           Z
 ---------------------------------------------------------------------
      1         26           0        0.000000    0.000000    0.000000
      2         15           0        0.215450    2.275540    0.087410
      3         15           0        0.215450   -2.275540    0.087410
      4          7           0       -2.019280    0.000000   -0.230980
      5          6           0       -2.775440   -1.108780   -0.635270
      6          6           0       -2.564950   -2.485240   -0.410420
      7          6           0       -3.480900   -3.388230   -0.951390
      8          6           0       -4.615260   -3.013630   -1.698400
      9          6           0       -4.833920   -1.651010   -1.879900
     10          6           0       -3.938640   -0.718600   -1.352370
     11          6           0       -3.938640    0.718600   -1.352370
     12          6           0       -4.833920    1.651010   -1.879900
     13          6           0       -4.615260    3.013630   -1.698400
     14          6           0       -3.480900    3.388230   -0.951390
     15          6           0       -2.564950    2.485240   -0.410420
     16          6           0       -2.775440    1.108780   -0.635270
     17          6           0       -1.450330    3.014260    0.453340
     18          6           0       -1.450330   -3.014260    0.453340
     19          6           0       -5.576500   -4.071120   -2.273130
     20          6           0       -5.109920   -5.497900   -1.920300
     21          6           0       -6.994170   -3.859350   -1.692920
     22          6           0       -5.653100   -3.964690   -3.809830
     23          6           0       -5.576500    4.071120   -2.273130
     24          6           0       -5.653100    3.964690   -3.809830
     25          6           0       -6.994170    3.859350   -1.692920
     26          6           0       -5.109920    5.497900   -1.920300
     27          6           0        1.256940    2.902660    1.576200
     28          6           0        0.517420    2.432180    2.845680
     29          6           0        2.655970    2.262030    1.585820
     30          6           0        1.397870    4.434370    1.634820
     31          6           0        0.790720    3.072970   -1.558370
     32          6           0       -0.281860    2.722380   -2.608890
     33          6           0        2.120100    2.452460   -2.021150
     34          6           0        0.929300    4.603390   -1.488250
     35          6           0        1.256940   -2.902660    1.576200
     36          6           0        0.517420   -2.432180    2.845680
     37          6           0        2.655970   -2.262030    1.585820
     38          6           0        1.397870   -4.434370    1.634820
     39          6           0        0.790720   -3.072970   -1.558370
     40          6           0       -0.281860   -2.722380   -2.608890
     41          6           0        2.120100   -2.452460   -2.021150
     42          6           0        0.929300   -4.603390   -1.488250
     43          1           0        1.570260    0.000000    0.000000
     44          1           0       -3.303180   -4.440770   -0.761600
     45          1           0       -5.701120   -1.297060   -2.424970
     46          1           0       -5.701120    1.297060   -2.424970
     47          1           0       -3.303180    4.440770   -0.761600
     48          1           0       -1.643640    2.730150    1.491550
     49          1           0       -1.433080    4.104480    0.418300
     50          1           0       -1.433080   -4.104480    0.418300
     51          1           0       -1.643640   -2.730150    1.491550
     52          1           0       -5.801160   -6.233590   -2.339910
     53          1           0       -5.073340   -5.656280   -0.840000
     54          1           0       -4.116400   -5.702340   -2.327270
     55          1           0       -7.689190   -4.602720   -2.096880
     56          1           0       -7.378870   -2.867250   -1.941320
     57          1           0       -6.995140   -3.953270   -0.603980
     58          1           0       -6.340020   -4.717850   -4.205330
     59          1           0       -4.674440   -4.129730   -4.268070
     60          1           0       -6.014230   -2.984680   -4.128490
     61          1           0       -6.340020    4.717850   -4.205330
     62          1           0       -6.014230    2.984680   -4.128490
     63          1           0       -4.674440    4.129730   -4.268070
     64          1           0       -7.689190    4.602720   -2.096880
     65          1           0       -6.995140    3.953270   -0.603980
     66          1           0       -7.378870    2.867250   -1.941320
     67          1           0       -5.801160    6.233590   -2.339910
     68          1           0       -4.116400    5.702340   -2.327270
     69          1           0       -5.073340    5.656280   -0.840000
     70          1           0        0.382210    1.348910    2.858780
     71          1           0       -0.457400    2.899430    2.958120
     72          1           0        1.108600    2.699660    3.721650
     73          1           0        2.603660    1.176630    1.511120
     74          1           0        3.151750    2.516710    2.524810
     75          1           0        3.285730    2.625490    0.778260
     76          1           0        1.961690    4.834610    0.791320
     77          1           0        1.940050    4.707240    2.546170
     78          1           0        0.431710    4.940210    1.671270
     79          1           0       -1.245760    3.168410   -2.381850
     80          1           0       -0.421620    1.642350   -2.703110
     81          1           0        0.043220    3.099310   -3.580820
     82          1           0        2.958640    2.742000   -1.393440
     83          1           0        2.334090    2.802350   -3.033600
     84          1           0        2.072930    1.362540   -2.043840
     85          1           0       -0.008160    5.086300   -1.206620
     86          1           0        1.204750    4.982640   -2.478500
     87          1           0        1.706280    4.923030   -0.791880
     88          1           0       -0.457400   -2.899430    2.958120
     89          1           0        0.382210   -1.348910    2.858780
     90          1           0        1.108600   -2.699660    3.721650
     91          1           0        2.603660   -1.176630    1.511120
     92          1           0        3.285730   -2.625490    0.778260
     93          1           0        3.151750   -2.516710    2.524810
     94          1           0        0.431710   -4.940210    1.671270
     95          1           0        1.940050   -4.707240    2.546170
     96          1           0        1.961690   -4.834610    0.791320
     97          1           0       -0.421620   -1.642350   -2.703110
     98          1           0       -1.245760   -3.168410   -2.381850
     99          1           0        0.043220   -3.099310   -3.580820
    100          1           0        2.072930   -1.362540   -2.043840
    101          1           0        2.334090   -2.802350   -3.033600
    102          1           0        2.958640   -2.742000   -1.393440
    103          1           0        1.706280   -4.923030   -0.791880
    104          1           0        1.204750   -4.982640   -2.478500
    105          1           0       -0.008160   -5.086300   -1.206620
 ---------------------------------------------------------------------
 Rotational constants (GHZ):           0.0725922           0.0717095           0.0419451
 Leave Link  202 at Mon Jul 22 17:33:34 2019, MaxMem=  2147483648 cpu:               0.1 elap:               0.2
 (Enter /apps/gaussian/16/A.03/g16/l301.exe)
 General basis read from cards:  (5D, 7F)
 Centers:      43     44     45     46     47     48     49     50     51     52
 Centers:      53     54     55     56     57     58     59     60     61     62
 Centers:      63     64     65     66     67     68     69     70     71     72
 Centers:      73     74     75     76     77     78     79     80     81     82
 Centers:      83     84     85     86     87     88     89     90     91     92
 Centers:      93     94     95     96     97     98     99    100    101    102
 Centers:     103    104    105      5      6      7      8      9     10     11
 Centers:      12     13     14     15     16     17     18     19     20     21
 Centers:      22     23     24     25     26     27     28     29     30     31
 Centers:      32     33     34     35     36     37     38     39     40     41
 Centers:      42
 def2TZVP
 ****
 Centers:       4      2      3      1
 def2TZVP
 ****
 Ernie: Thresh=  0.10000D-02 Tol=  0.10000D-05 Strict=F.
  1706 basis functions,  2733 primitive gaussians,  1918 cartesian basis functions
   178 alpha electrons      176 beta electrons
       nuclear repulsion energy      6860.0149594961 Hartrees.
 IExCor= 2523 DFT=T Ex+Corr=TPSSh ExCW=0 ScaHFX=  0.100000
 ScaDFX=  0.900000  0.900000  1.000000  1.000000 ScalE2=  1.000000  1.000000
 IRadAn=      5 IRanWt=     -1 IRanGd=            0 ICorTp=0 IEmpDi=  4
 NAtoms=  105 NActive=  105 NUniq=  105 SFac= 1.00D+00 NAtFMM=   60 NAOKFM=T Big=T
 Integral buffers will be    131072 words long.
 Raffenetti 2 integral format.
 Two-electron integral symmetry is turned off.
 Leave Link  301 at Mon Jul 22 17:33:34 2019, MaxMem=  2147483648 cpu:               1.1 elap:               0.1
 (Enter /apps/gaussian/16/A.03/g16/l302.exe)
 NPDir=0 NMtPBC=     1 NCelOv=     1 NCel=       1 NClECP=     1 NCelD=      1
         NCelK=      1 NCelE2=     1 NClLst=     1 CellRange=     0.0.
 One-electron integrals computed using PRISM.
 NBasis=  1706 RedAO= T EigKep=  2.25D-06  NBF=  1706
 NBsUse=  1706 1.00D-06 EigRej= -1.00D+00 NBFU=  1706
 Precomputing XC quadrature grid using
 IXCGrd= 4 IRadAn=           5 IRanWt=          -1 IRanGd=           0 AccXCQ= 0.00D+00.
 Generated NRdTot=       0 NPtTot=           0 NUsed=           0 NTot=          32
 NSgBfM=  1855  1855  1855  1855  1855 MxSgAt=   105 MxSgA2=   105.
 Leave Link  302 at Mon Jul 22 17:33:42 2019, MaxMem=  2147483648 cpu:             124.4 elap:               7.9
 (Enter /apps/gaussian/16/A.03/g16/l303.exe)
 DipDrv:  MaxL=1.
 Leave Link  303 at Mon Jul 22 17:33:43 2019, MaxMem=  2147483648 cpu:              10.5 elap:               0.8
 (Enter /apps/gaussian/16/A.03/g16/l401.exe)
 ExpMin= 4.20D-02 ExpMax= 3.01D+05 ExpMxC= 2.91D+03 IAcc=3 IRadAn=         5 AccDes= 0.00D+00
 Harris functional with IExCor= 1009 and IRadAn=       5 diagonalized for initial guess.
 HarFok:  IExCor= 1009 AccDes= 0.00D+00 IRadAn=         5 IDoV= 1 UseB2=F ITyADJ=14
 ICtDFT=  3500011 ScaDFX=  1.000000  1.000000  1.000000  1.000000
 FoFCou: FMM=F IPFlag=           0 FMFlag=      100000 FMFlg1=        2001
         NFxFlg=           0 DoJE=T BraDBF=F KetDBF=T FulRan=T
         wScrn=  0.000000 ICntrl=       500 IOpCl=  0 I1Cent=   200000004 NGrid=           0
         NMat0=    1 NMatS0=      1 NMatT0=    0 NMatD0=    1 NMtDS0=    0 NMtDT0=    0
 Symmetry not used in FoFCou.
 Harris En= -3486.17749245967    
 JPrj=0 DoOrth=F DoCkMO=F.
 Initial guess <Sx>= 0.0000 <Sy>= 0.0000 <Sz>= 1.0000 <S**2>= 2.0000 S= 1.0000
 Leave Link  401 at Mon Jul 22 17:34:16 2019, MaxMem=  2147483648 cpu:             527.1 elap:              33.2
 (Enter /apps/gaussian/16/A.03/g16/l502.exe)
 Two-electron integral symmetry not used.
 UHF open shell SCF:
 Using DIIS extrapolation, IDIIS=  1040.
 NGot=  2147483648 LenX=  2140082495 LenY=  2136401853
 Requested convergence on RMS density matrix=1.00D-08 within 128 cycles.
 Requested convergence on MAX density matrix=1.00D-06.
 Requested convergence on             energy=1.00D-06.
 No special actions if energy rises.
 Fock matrices will be formed incrementally for  20 cycles.

 Cycle   1  Pass 1  IDiag  1:
 FoFJK:  IHMeth= 1 ICntrl=       0 DoSepK=F KAlg= 0 I1Cent=           0 FoldK=F
 IRaf= 750000000 NMat=       1 IRICut=       1 DoRegI=T DoRafI=F ISym2E= 0 IDoP0=0 IntGTp=1.
 FoFCou: FMM=T IPFlag=           0 FMFlag=      100000 FMFlg1=        2001
         NFxFlg=           0 DoJE=F BraDBF=F KetDBF=F FulRan=T
         wScrn=  0.000000 ICntrl=         0 IOpCl=  1 I1Cent=           0 NGrid=           0
         NMat0=    1 NMatS0=      1 NMatT0=    0 NMatD0=    1 NMtDS0=    0 NMtDT0=    0
 Symmetry not used in FoFCou.
 FMM levels:  10  Number of levels for PrismC:   9
 E= -3486.47426298553    
 DIIS: error= 4.10D-02 at cycle   1 NSaved=   1.
 NSaved= 1 IEnMin= 1 EnMin= -3486.47426298553     IErMin= 1 ErrMin= 4.10D-02
 ErrMax= 4.10D-02  0.00D+00 EMaxC= 1.00D-01 BMatC= 6.41D+00 BMatP= 6.41D+00
 IDIUse=3 WtCom= 5.90D-01 WtEn= 4.10D-01
 Coeff-Com:  0.100D+01
 Coeff-En:   0.100D+01
 Coeff:      0.100D+01
 Gap=     0.150 Goal=   None    Shift=    0.000
 Gap=     0.094 Goal=   None    Shift=    0.000
 GapD=    0.094 DampG=0.500 DampE=0.250 DampFc=0.1250 IDamp=-1.
 Damping current iteration by 1.25D-01
 RMSDP=3.41D-03 MaxDP=5.43D-01              OVMax= 3.52D-01

 Cycle   2  Pass 1  IDiag  1:
 RMSU=  4.26D-04    CP:  9.95D-01
 E= -3486.81376152751     Delta-E=       -0.339498541985 Rises=F Damp=T
 DIIS: error= 2.98D-02 at cycle   2 NSaved=   2.
 NSaved= 2 IEnMin= 2 EnMin= -3486.81376152751     IErMin= 2 ErrMin= 2.98D-02
 ErrMax= 2.98D-02  0.00D+00 EMaxC= 1.00D-01 BMatC= 3.61D+00 BMatP= 6.41D+00
 IDIUse=3 WtCom= 7.02D-01 WtEn= 2.98D-01
 Coeff-Com: -0.204D+01 0.304D+01
 Coeff-En:   0.000D+00 0.100D+01
 Coeff:     -0.143D+01 0.243D+01
 Gap=     0.234 Goal=   None    Shift=    0.000
 Gap=     0.192 Goal=   None    Shift=    0.000
 RMSDP=1.21D-03 MaxDP=3.57D-01 DE=-3.39D-01 OVMax= 9.59D-01

 Cycle   3  Pass 1  IDiag  1:
 RMSU=  1.13D-03    CP:  9.21D-01  1.49D+00
 E= -3484.10358979607     Delta-E=        2.710171731444 Rises=F Damp=F
 DIIS: error= 7.90D-02 at cycle   3 NSaved=   3.
 NSaved= 3 IEnMin= 2 EnMin= -3486.81376152751     IErMin= 2 ErrMin= 2.98D-02
 ErrMax= 7.90D-02  0.00D+00 EMaxC= 1.00D-01 BMatC= 2.74D+01 BMatP= 3.61D+00
 IDIUse=2 WtCom= 0.00D+00 WtEn= 1.00D+00
 Coeff-En:   0.000D+00 0.814D+00 0.186D+00
 Coeff:      0.000D+00 0.814D+00 0.186D+00
 Gap=     0.256 Goal=   None    Shift=    0.000
 Gap=     0.026 Goal=   None    Shift=    0.000
 RMSDP=1.38D-01 MaxDP=3.29D+01 DE= 2.71D+00 OVMax= 1.00D+00

 Cycle   4  Pass 1  IDiag  1:
 RMSU=  1.36D-01    CP:  3.00D+00  3.00D+00 -3.00D+00
 E= -3472.32351158660     Delta-E=       11.780078209464 Rises=F Damp=F
 DIIS: error= 7.08D-02 at cycle   4 NSaved=   4.
 NSaved= 4 IEnMin= 2 EnMin= -3486.81376152751     IErMin= 2 ErrMin= 2.98D-02
 ErrMax= 7.08D-02  0.00D+00 EMaxC= 1.00D-01 BMatC= 3.87D+01 BMatP= 3.61D+00
 IDIUse=2 WtCom= 0.00D+00 WtEn= 1.00D+00
 EnCoef did    57 forward-backward iterations
 Coeff-En:   0.306D+00 0.317D-02 0.476D+00 0.215D+00
 Coeff:      0.306D+00 0.317D-02 0.476D+00 0.215D+00
 Gap=    -0.001 Goal=   None    Shift=    0.000
 Gap=     0.042 Goal=   None    Shift=    0.000
 RMSDP=1.37D-01 MaxDP=3.29D+01 DE= 1.18D+01 OVMax= 9.93D-01

 Cycle   5  Pass 1  IDiag  1:
 RMSU=  1.01D-03    CP:  9.40D-01  2.44D+00  1.51D-01  1.38D-04
 E= -3486.48631943505     Delta-E=      -14.162807848450 Rises=F Damp=F
 DIIS: error= 3.76D-02 at cycle   5 NSaved=   5.
 NSaved= 5 IEnMin= 2 EnMin= -3486.81376152751     IErMin= 2 ErrMin= 2.98D-02
 ErrMax= 3.76D-02  0.00D+00 EMaxC= 1.00D-01 BMatC= 1.15D+01 BMatP= 3.61D+00
 IDIUse=2 WtCom= 0.00D+00 WtEn= 1.00D+00
 EnCoef did     1 forward-backward iterations
 Coeff-En:   0.163D-01 0.000D+00 0.354D+00 0.000D+00 0.630D+00
 Coeff:      0.163D-01 0.000D+00 0.354D+00 0.000D+00 0.630D+00
 Gap=     0.154 Goal=   None    Shift=    0.000
 Gap=     0.098 Goal=   None    Shift=    0.000
 RMSDP=1.49D-03 MaxDP=3.49D-01 DE=-1.42D+01 OVMax= 4.27D-01

 Cycle   6  Pass 1  IDiag  1:
 RMSU=  1.01D-03    CP:  9.32D-01  1.29D+00  4.42D-01 -2.60D-04  8.95D-02
 E= -3487.23032283783     Delta-E=       -0.744003402777 Rises=F Damp=F
 DIIS: error= 2.22D-02 at cycle   6 NSaved=   6.
 NSaved= 6 IEnMin= 6 EnMin= -3487.23032283783     IErMin= 6 ErrMin= 2.22D-02
 ErrMax= 2.22D-02  0.00D+00 EMaxC= 1.00D-01 BMatC= 3.32D+00 BMatP= 3.61D+00
 IDIUse=3 WtCom= 7.78D-01 WtEn= 2.22D-01
 EnCoef did     9 forward-backward iterations
 Coeff-Com: -0.155D+01 0.210D+01 0.104D+00-0.196D-01 0.882D-01 0.274D+00
 Coeff-En:   0.000D+00 0.000D+00 0.201D+00 0.000D+00 0.443D+00 0.356D+00
 Coeff:     -0.121D+01 0.164D+01 0.126D+00-0.153D-01 0.167D+00 0.292D+00
 Gap=     0.178 Goal=   None    Shift=    0.000
 Gap=     0.122 Goal=   None    Shift=    0.000
 RMSDP=1.00D-03 MaxDP=1.02D-01 DE=-7.44D-01 OVMax= 3.71D-01

 Cycle   7  Pass 1  IDiag  1:
 RMSU=  4.47D-04    CP:  9.22D-01  1.47D+00  4.98D-01 -7.08D-04  4.15D-01
                    CP:  1.85D-01
 E= -3487.91853128016     Delta-E=       -0.688208442332 Rises=F Damp=F
 DIIS: error= 5.89D-03 at cycle   7 NSaved=   7.
 NSaved= 7 IEnMin= 7 EnMin= -3487.91853128016     IErMin= 7 ErrMin= 5.89D-03
 ErrMax= 5.89D-03  0.00D+00 EMaxC= 1.00D-01 BMatC= 4.03D-01 BMatP= 3.32D+00
 IDIUse=3 WtCom= 9.41D-01 WtEn= 5.89D-02
 EnCoef did     3 forward-backward iterations
 Coeff-Com: -0.551D+00 0.697D+00 0.284D-01-0.717D-02-0.486D-01 0.198D+00
 Coeff-Com:  0.683D+00
 Coeff-En:   0.000D+00 0.000D+00 0.112D-01 0.000D+00 0.000D+00 0.925D-01
 Coeff-En:   0.896D+00
 Coeff:     -0.518D+00 0.656D+00 0.274D-01-0.675D-02-0.458D-01 0.192D+00
 Coeff:      0.695D+00
 Gap=     0.118 Goal=   None    Shift=    0.000
 Gap=     0.095 Goal=   None    Shift=    0.000
 RMSDP=4.18D-04 MaxDP=5.71D-02 DE=-6.88D-01 OVMax= 1.33D-01

 Cycle   8  Pass 1  IDiag  1:
 RMSU=  3.68D-04    CP:  9.24D-01  1.41D+00  5.75D-01 -6.36D-04  3.26D-01
                    CP:  1.36D-01  6.81D-01
 E= -3487.97374043545     Delta-E=       -0.055209155287 Rises=F Damp=F
 DIIS: error= 3.01D-03 at cycle   8 NSaved=   8.
 NSaved= 8 IEnMin= 8 EnMin= -3487.97374043545     IErMin= 8 ErrMin= 3.01D-03
 ErrMax= 3.01D-03  0.00D+00 EMaxC= 1.00D-01 BMatC= 9.01D-02 BMatP= 4.03D-01
 IDIUse=3 WtCom= 9.70D-01 WtEn= 3.01D-02
 Coeff-Com: -0.156D+00 0.189D+00 0.127D-01 0.996D-03-0.544D-01 0.843D-01
 Coeff-Com:  0.480D+00 0.444D+00
 Coeff-En:   0.000D+00 0.000D+00 0.000D+00 0.000D+00 0.000D+00 0.000D+00
 Coeff-En:   0.216D+00 0.784D+00
 Coeff:     -0.151D+00 0.183D+00 0.123D-01 0.966D-03-0.528D-01 0.818D-01
 Coeff:      0.472D+00 0.454D+00
 Gap=     0.131 Goal=   None    Shift=    0.000
 Gap=     0.106 Goal=   None    Shift=    0.000
 RMSDP=2.33D-04 MaxDP=4.15D-02 DE=-5.52D-02 OVMax= 6.56D-02

 Cycle   9  Pass 1  IDiag  1:
 RMSU=  9.62D-05    CP:  9.21D-01  1.36D+00  5.73D-01 -7.32D-04  3.12D-01
                    CP:  2.01D-01  8.33D-01  4.91D-01
 E= -3487.99347396195     Delta-E=       -0.019733526504 Rises=F Damp=F
 DIIS: error= 1.11D-03 at cycle   9 NSaved=   9.
 NSaved= 9 IEnMin= 9 EnMin= -3487.99347396195     IErMin= 9 ErrMin= 1.11D-03
 ErrMax= 1.11D-03  0.00D+00 EMaxC= 1.00D-01 BMatC= 9.61D-03 BMatP= 9.01D-02
 IDIUse=3 WtCom= 9.89D-01 WtEn= 1.11D-02
 Coeff-Com: -0.209D-01 0.215D-01 0.233D-02 0.141D-02-0.160D-01 0.321D-01
 Coeff-Com:  0.179D+00 0.272D+00 0.529D+00
 Coeff-En:   0.000D+00 0.000D+00 0.000D+00 0.000D+00 0.000D+00 0.000D+00
 Coeff-En:   0.000D+00 0.888D-01 0.911D+00
 Coeff:     -0.206D-01 0.212D-01 0.230D-02 0.139D-02-0.159D-01 0.318D-01
 Coeff:      0.177D+00 0.270D+00 0.533D+00
 Gap=     0.127 Goal=   None    Shift=    0.000
 Gap=     0.098 Goal=   None    Shift=    0.000
 RMSDP=5.73D-05 MaxDP=9.09D-03 DE=-1.97D-02 OVMax= 1.51D-02

 Cycle  10  Pass 1  IDiag  1:
 RMSU=  3.42D-05    CP:  9.22D-01  1.38D+00  5.70D-01 -7.36D-04  3.13D-01
                    CP:  2.03D-01  8.05D-01  5.99D-01  8.11D-01
 E= -3487.99550145240     Delta-E=       -0.002027490445 Rises=F Damp=F
 DIIS: error= 2.64D-04 at cycle  10 NSaved=  10.
 NSaved=10 IEnMin=10 EnMin= -3487.99550145240     IErMin=10 ErrMin= 2.64D-04
 ErrMax= 2.64D-04  0.00D+00 EMaxC= 1.00D-01 BMatC= 1.22D-03 BMatP= 9.61D-03
 IDIUse=3 WtCom= 9.97D-01 WtEn= 2.64D-03
 Coeff-Com: -0.132D-03-0.767D-03-0.102D-02 0.647D-03-0.330D-03 0.577D-02
 Coeff-Com:  0.304D-01 0.988D-01 0.318D+00 0.549D+00
 Coeff-En:   0.000D+00 0.000D+00 0.000D+00 0.000D+00 0.000D+00 0.000D+00
 Coeff-En:   0.000D+00 0.000D+00 0.365D-01 0.963D+00
 Coeff:     -0.132D-03-0.765D-03-0.101D-02 0.646D-03-0.329D-03 0.575D-02
 Coeff:      0.303D-01 0.985D-01 0.317D+00 0.550D+00
 Gap=     0.128 Goal=   None    Shift=    0.000
 Gap=     0.099 Goal=   None    Shift=    0.000
 RMSDP=1.88D-05 MaxDP=3.35D-03 DE=-2.03D-03 OVMax= 7.09D-03

 Cycle  11  Pass 1  IDiag  1:
 RMSU=  1.57D-05    CP:  9.21D-01  1.37D+00  5.72D-01 -7.38D-04  3.15D-01
                    CP:  2.04D-01  8.08D-01  5.92D-01  8.51D-01  7.89D-01
 E= -3487.99574912351     Delta-E=       -0.000247671111 Rises=F Damp=F
 DIIS: error= 2.72D-04 at cycle  11 NSaved=  11.
 NSaved=11 IEnMin=11 EnMin= -3487.99574912351     IErMin=10 ErrMin= 2.64D-04
 ErrMax= 2.72D-04  0.00D+00 EMaxC= 1.00D-01 BMatC= 3.92D-04 BMatP= 1.22D-03
 IDIUse=3 WtCom= 9.97D-01 WtEn= 2.64D-03
 Coeff-Com: -0.363D-02 0.437D-02-0.122D-02 0.310D-03 0.148D-02 0.946D-03
 Coeff-Com:  0.588D-02 0.394D-01 0.131D+00 0.330D+00 0.491D+00
 Coeff-En:   0.000D+00 0.000D+00 0.000D+00 0.000D+00 0.000D+00 0.000D+00
 Coeff-En:   0.000D+00 0.000D+00 0.000D+00 0.316D-01 0.968D+00
 Coeff:     -0.362D-02 0.436D-02-0.122D-02 0.310D-03 0.147D-02 0.944D-03
 Coeff:      0.586D-02 0.393D-01 0.131D+00 0.329D+00 0.492D+00
 Gap=     0.128 Goal=   None    Shift=    0.000
 Gap=     0.099 Goal=   None    Shift=    0.000
 RMSDP=8.85D-06 MaxDP=1.40D-03 DE=-2.48D-04 OVMax= 3.46D-03

 Cycle  12  Pass 1  IDiag  1:
 RMSU=  7.25D-06    CP:  9.21D-01  1.37D+00  5.71D-01 -7.36D-04  3.15D-01
                    CP:  2.03D-01  8.07D-01  5.95D-01  8.58D-01  8.36D-01
                    CP:  7.81D-01
 E= -3487.99580122409     Delta-E=       -0.000052100579 Rises=F Damp=F
 DIIS: error= 1.86D-04 at cycle  12 NSaved=  12.
 NSaved=12 IEnMin=12 EnMin= -3487.99580122409     IErMin=12 ErrMin= 1.86D-04
 ErrMax= 1.86D-04  0.00D+00 EMaxC= 1.00D-01 BMatC= 1.73D-04 BMatP= 3.92D-04
 IDIUse=3 WtCom= 9.98D-01 WtEn= 1.86D-03
 Coeff-Com: -0.680D-02 0.855D-02-0.746D-03 0.716D-04 0.137D-02-0.879D-03
 Coeff-Com: -0.158D-02-0.423D-02-0.432D-01 0.237D-02 0.351D+00 0.694D+00
 Coeff-En:   0.000D+00 0.000D+00 0.000D+00 0.000D+00 0.000D+00 0.000D+00
 Coeff-En:   0.000D+00 0.000D+00 0.000D+00 0.000D+00 0.815D-01 0.918D+00
 Coeff:     -0.679D-02 0.854D-02-0.745D-03 0.714D-04 0.136D-02-0.877D-03
 Coeff:     -0.158D-02-0.422D-02-0.431D-01 0.236D-02 0.350D+00 0.695D+00
 Gap=     0.128 Goal=   None    Shift=    0.000
 Gap=     0.100 Goal=   None    Shift=    0.000
 RMSDP=5.60D-06 MaxDP=1.09D-03 DE=-5.21D-05 OVMax= 2.86D-03

 Cycle  13  Pass 1  IDiag  1:
 RMSU=  4.39D-06    CP:  9.21D-01  1.37D+00  5.71D-01 -7.36D-04  3.15D-01
                    CP:  2.02D-01  8.06D-01  5.99D-01  8.63D-01  8.62D-01
                    CP:  9.43D-01  9.39D-01
 E= -3487.99583307336     Delta-E=       -0.000031849273 Rises=F Damp=F
 DIIS: error= 1.05D-04 at cycle  13 NSaved=  13.
 NSaved=13 IEnMin=13 EnMin= -3487.99583307336     IErMin=13 ErrMin= 1.05D-04
 ErrMax= 1.05D-04  0.00D+00 EMaxC= 1.00D-01 BMatC= 4.73D-05 BMatP= 1.73D-04
 IDIUse=3 WtCom= 9.99D-01 WtEn= 1.05D-03
 Coeff-Com: -0.481D-02 0.595D-02-0.165D-03-0.131D-04 0.422D-03-0.907D-04
 Coeff-Com:  0.145D-02-0.108D-01-0.718D-01-0.117D+00 0.470D-03 0.380D+00
 Coeff-Com:  0.816D+00
 Coeff-En:   0.000D+00 0.000D+00 0.000D+00 0.000D+00 0.000D+00 0.000D+00
 Coeff-En:   0.000D+00 0.000D+00 0.000D+00 0.000D+00 0.000D+00 0.000D+00
 Coeff-En:   0.100D+01
 Coeff:     -0.480D-02 0.595D-02-0.165D-03-0.131D-04 0.422D-03-0.906D-04
 Coeff:      0.145D-02-0.108D-01-0.717D-01-0.117D+00 0.469D-03 0.380D+00
 Coeff:      0.816D+00
 Gap=     0.128 Goal=   None    Shift=    0.000
 Gap=     0.100 Goal=   None    Shift=    0.000
 RMSDP=3.77D-06 MaxDP=9.07D-04 DE=-3.18D-05 OVMax= 2.42D-03

 Cycle  14  Pass 1  IDiag  1:
 RMSU=  2.28D-06    CP:  9.21D-01  1.37D+00  5.70D-01 -7.37D-04  3.16D-01
                    CP:  2.02D-01  8.07D-01  6.00D-01  8.59D-01  8.95D-01
                    CP:  1.01D+00  1.21D+00  1.14D+00
 E= -3487.99584430341     Delta-E=       -0.000011230048 Rises=F Damp=F
 DIIS: error= 1.57D-05 at cycle  14 NSaved=  14.
 NSaved=14 IEnMin=14 EnMin= -3487.99584430341     IErMin=14 ErrMin= 1.57D-05
 ErrMax= 1.57D-05  0.00D+00 EMaxC= 1.00D-01 BMatC= 3.01D-06 BMatP= 4.73D-05
 IDIUse=1 WtCom= 1.00D+00 WtEn= 0.00D+00
 Coeff-Com: -0.118D-02 0.137D-02 0.383D-04-0.193D-04-0.702D-06 0.296D-03
 Coeff-Com:  0.164D-02-0.441D-02-0.306D-01-0.645D-01-0.677D-01 0.746D-01
 Coeff-Com:  0.461D+00 0.629D+00
 Coeff:     -0.118D-02 0.137D-02 0.383D-04-0.193D-04-0.702D-06 0.296D-03
 Coeff:      0.164D-02-0.441D-02-0.306D-01-0.645D-01-0.677D-01 0.746D-01
 Coeff:      0.461D+00 0.629D+00
 Gap=     0.128 Goal=   None    Shift=    0.000
 Gap=     0.100 Goal=   None    Shift=    0.000
 RMSDP=1.51D-06 MaxDP=2.93D-04 DE=-1.12D-05 OVMax= 8.06D-04

 Cycle  15  Pass 1  IDiag  1:
 RMSU=  1.01D-06    CP:  9.21D-01  1.37D+00  5.70D-01 -7.38D-04  3.16D-01
                    CP:  2.02D-01  8.07D-01  6.00D-01  8.58D-01  9.02D-01
                    CP:  1.05D+00  1.25D+00  1.30D+00  9.75D-01
 E= -3487.99584522460     Delta-E=       -0.000000921193 Rises=F Damp=F
 DIIS: error= 1.98D-05 at cycle  15 NSaved=  15.
 NSaved=15 IEnMin=15 EnMin= -3487.99584522460     IErMin=14 ErrMin= 1.57D-05
 ErrMax= 1.98D-05  0.00D+00 EMaxC= 1.00D-01 BMatC= 2.00D-06 BMatP= 3.01D-06
 IDIUse=1 WtCom= 1.00D+00 WtEn= 0.00D+00
 Coeff-Com:  0.119D-03-0.180D-03 0.583D-04-0.136D-04-0.683D-04 0.691D-04
 Coeff-Com:  0.283D-03-0.205D-02-0.102D-01-0.248D-01-0.353D-01 0.704D-02
 Coeff-Com:  0.179D+00 0.380D+00 0.506D+00
 Coeff:      0.119D-03-0.180D-03 0.583D-04-0.136D-04-0.683D-04 0.691D-04
 Coeff:      0.283D-03-0.205D-02-0.102D-01-0.248D-01-0.353D-01 0.704D-02
 Coeff:      0.179D+00 0.380D+00 0.506D+00
 Gap=     0.128 Goal=   None    Shift=    0.000
 Gap=     0.100 Goal=   None    Shift=    0.000
 RMSDP=4.68D-07 MaxDP=1.03D-04 DE=-9.21D-07 OVMax= 1.86D-04

 Cycle  16  Pass 1  IDiag  1:
 RMSU=  3.56D-07    CP:  9.21D-01  1.37D+00  5.70D-01 -7.38D-04  3.16D-01
                    CP:  2.02D-01  8.07D-01  6.00D-01  8.57D-01  9.02D-01
                    CP:  1.05D+00  1.27D+00  1.31D+00  1.06D+00  8.61D-01
 E= -3487.99584554550     Delta-E=       -0.000000320901 Rises=F Damp=F
 DIIS: error= 1.38D-05 at cycle  16 NSaved=  16.
 NSaved=16 IEnMin=16 EnMin= -3487.99584554550     IErMin=16 ErrMin= 1.38D-05
 ErrMax= 1.38D-05  0.00D+00 EMaxC= 1.00D-01 BMatC= 6.21D-07 BMatP= 2.00D-06
 IDIUse=1 WtCom= 1.00D+00 WtEn= 0.00D+00
 Coeff-Com:  0.650D-03-0.786D-03 0.359D-04-0.884D-05-0.503D-04-0.142D-03
 Coeff-Com: -0.811D-03-0.205D-03 0.405D-02 0.757D-02 0.660D-02-0.129D-01
 Coeff-Com: -0.486D-01-0.133D-01 0.230D+00 0.828D+00
 Coeff:      0.650D-03-0.786D-03 0.359D-04-0.884D-05-0.503D-04-0.142D-03
 Coeff:     -0.811D-03-0.205D-03 0.405D-02 0.757D-02 0.660D-02-0.129D-01
 Coeff:     -0.486D-01-0.133D-01 0.230D+00 0.828D+00
 Gap=     0.128 Goal=   None    Shift=    0.000
 Gap=     0.100 Goal=   None    Shift=    0.000
 RMSDP=2.93D-07 MaxDP=1.01D-04 DE=-3.21D-07 OVMax= 1.64D-04

 Cycle  17  Pass 1  IDiag  1:
 RMSU=  2.12D-07    CP:  9.21D-01  1.37D+00  5.70D-01 -7.38D-04  3.16D-01
                    CP:  2.02D-01  8.07D-01  6.00D-01  8.58D-01  9.02D-01
                    CP:  1.06D+00  1.28D+00  1.33D+00  1.08D+00  9.31D-01
                    CP:  1.09D+00
 E= -3487.99584567007     Delta-E=       -0.000000124564 Rises=F Damp=F
 DIIS: error= 3.57D-06 at cycle  17 NSaved=  17.
 NSaved=17 IEnMin=17 EnMin= -3487.99584567007     IErMin=17 ErrMin= 3.57D-06
 ErrMax= 3.57D-06  0.00D+00 EMaxC= 1.00D-01 BMatC= 4.91D-08 BMatP= 6.21D-07
 IDIUse=1 WtCom= 1.00D+00 WtEn= 0.00D+00
 Coeff-Com:  0.310D-03-0.357D-03 0.883D-05-0.968D-06-0.482D-05-0.116D-03
 Coeff-Com: -0.586D-03 0.221D-03 0.420D-02 0.924D-02 0.103D-01-0.829D-02
 Coeff-Com: -0.635D-01-0.110D+00-0.605D-01 0.368D+00 0.852D+00
 Coeff:      0.310D-03-0.357D-03 0.883D-05-0.968D-06-0.482D-05-0.116D-03
 Coeff:     -0.586D-03 0.221D-03 0.420D-02 0.924D-02 0.103D-01-0.829D-02
 Coeff:     -0.635D-01-0.110D+00-0.605D-01 0.368D+00 0.852D+00
 Gap=     0.128 Goal=   None    Shift=    0.000
 Gap=     0.100 Goal=   None    Shift=    0.000
 RMSDP=1.93D-07 MaxDP=6.31D-05 DE=-1.25D-07 OVMax= 1.22D-04

 Cycle  18  Pass 1  IDiag  1:
 RMSU=  1.17D-07    CP:  9.21D-01  1.37D+00  5.70D-01 -7.38D-04  3.16D-01
                    CP:  2.02D-01  8.07D-01  6.00D-01  8.58D-01  9.02D-01
                    CP:  1.05D+00  1.28D+00  1.35D+00  1.11D+00  9.67D-01
                    CP:  1.26D+00  1.07D+00
 E= -3487.99584568823     Delta-E=       -0.000000018164 Rises=F Damp=F
 DIIS: error= 1.09D-06 at cycle  18 NSaved=  18.
 NSaved=18 IEnMin=18 EnMin= -3487.99584568823     IErMin=18 ErrMin= 1.09D-06
 ErrMax= 1.09D-06  0.00D+00 EMaxC= 1.00D-01 BMatC= 7.72D-09 BMatP= 4.91D-08
 IDIUse=1 WtCom= 1.00D+00 WtEn= 0.00D+00
 Coeff-Com:  0.620D-04-0.679D-04 0.175D-06-0.142D-06 0.510D-05-0.268D-04
 Coeff-Com: -0.164D-03 0.821D-04 0.127D-02 0.276D-02 0.223D-02-0.358D-02
 Coeff-Com: -0.193D-01-0.439D-01-0.563D-01 0.520D-01 0.442D+00 0.622D+00
 Coeff:      0.620D-04-0.679D-04 0.175D-06-0.142D-06 0.510D-05-0.268D-04
 Coeff:     -0.164D-03 0.821D-04 0.127D-02 0.276D-02 0.223D-02-0.358D-02
 Coeff:     -0.193D-01-0.439D-01-0.563D-01 0.520D-01 0.442D+00 0.622D+00
 Gap=     0.128 Goal=   None    Shift=    0.000
 Gap=     0.100 Goal=   None    Shift=    0.000
 RMSDP=6.43D-08 MaxDP=1.36D-05 DE=-1.82D-08 OVMax= 3.47D-05

 Cycle  19  Pass 1  IDiag  1:
 RMSU=  4.56D-08    CP:  9.21D-01  1.37D+00  5.70D-01 -7.38D-04  3.16D-01
                    CP:  2.02D-01  8.07D-01  6.00D-01  8.58D-01  9.02D-01
                    CP:  1.06D+00  1.28D+00  1.36D+00  1.11D+00  9.75D-01
                    CP:  1.28D+00  1.17D+00  9.10D-01
 E= -3487.99584569050     Delta-E=       -0.000000002266 Rises=F Damp=F
 DIIS: error= 2.28D-07 at cycle  19 NSaved=  19.
 NSaved=19 IEnMin=19 EnMin= -3487.99584569050     IErMin=19 ErrMin= 2.28D-07
 ErrMax= 2.28D-07  0.00D+00 EMaxC= 1.00D-01 BMatC= 5.77D-10 BMatP= 7.72D-09
 IDIUse=1 WtCom= 1.00D+00 WtEn= 0.00D+00
 Coeff-Com:  0.257D-05-0.208D-05-0.559D-06-0.352D-07 0.251D-05-0.181D-06
 Coeff-Com: -0.209D-04 0.849D-05 0.193D-03 0.339D-03-0.135D-03-0.111D-02
 Coeff-Com: -0.257D-02-0.846D-02-0.164D-01-0.697D-02 0.122D+00 0.267D+00
 Coeff-Com:  0.646D+00
 Coeff:      0.257D-05-0.208D-05-0.559D-06-0.352D-07 0.251D-05-0.181D-06
 Coeff:     -0.209D-04 0.849D-05 0.193D-03 0.339D-03-0.135D-03-0.111D-02
 Coeff:     -0.257D-02-0.846D-02-0.164D-01-0.697D-02 0.122D+00 0.267D+00
 Coeff:      0.646D+00
 Gap=     0.128 Goal=   None    Shift=    0.000
 Gap=     0.100 Goal=   None    Shift=    0.000
 RMSDP=2.09D-08 MaxDP=4.15D-06 DE=-2.27D-09 OVMax= 4.02D-06

 Cycle  20  Pass 1  IDiag  1:
 RMSU=  1.48D-08    CP:  9.21D-01  1.37D+00  5.70D-01 -7.38D-04  3.16D-01
                    CP:  2.02D-01  8.07D-01  6.00D-01  8.58D-01  9.02D-01
                    CP:  1.06D+00  1.28D+00  1.36D+00  1.11D+00  9.66D-01
                    CP:  1.28D+00  1.20D+00  9.58D-01  1.03D+00
 E= -3487.99584569072     Delta-E=       -0.000000000218 Rises=F Damp=F
 DIIS: error= 1.13D-07 at cycle  20 NSaved=  20.
 NSaved=20 IEnMin=20 EnMin= -3487.99584569072     IErMin=20 ErrMin= 1.13D-07
 ErrMax= 1.13D-07  0.00D+00 EMaxC= 1.00D-01 BMatC= 1.31D-10 BMatP= 5.77D-10
 IDIUse=1 WtCom= 1.00D+00 WtEn= 0.00D+00
 Coeff-Com: -0.767D-05 0.886D-05-0.352D-06 0.724D-07 0.570D-06 0.361D-05
 Coeff-Com:  0.120D-04-0.343D-05-0.545D-04-0.156D-03-0.253D-03-0.601D-04
 Coeff-Com:  0.876D-03 0.111D-02-0.193D-03-0.834D-02 0.880D-03 0.425D-01
 Coeff-Com:  0.337D+00 0.626D+00
 Coeff:     -0.767D-05 0.886D-05-0.352D-06 0.724D-07 0.570D-06 0.361D-05
 Coeff:      0.120D-04-0.343D-05-0.545D-04-0.156D-03-0.253D-03-0.601D-04
 Coeff:      0.876D-03 0.111D-02-0.193D-03-0.834D-02 0.880D-03 0.425D-01
 Coeff:      0.337D+00 0.626D+00
 Gap=     0.128 Goal=   None    Shift=    0.000
 Gap=     0.100 Goal=   None    Shift=    0.000
 RMSDP=8.97D-09 MaxDP=1.24D-06 DE=-2.18D-10 OVMax= 1.90D-06

 Cycle  21  Pass 1  IDiag  1:
 Restarting incremental Fock formation.
 E= -3487.99584569061     Delta-E=        0.000000000109 Rises=F Damp=F
 DIIS: error= 7.92D-08 at cycle  21 NSaved=  20.
 NSaved=20 IEnMin=19 EnMin= -3487.99584569072     IErMin=20 ErrMin= 7.92D-08
 ErrMax= 7.92D-08  0.00D+00 EMaxC= 1.00D-01 BMatC= 3.44D-11 BMatP= 1.31D-10
 IDIUse=1 WtCom= 1.00D+00 WtEn= 0.00D+00
 Coeff-Com: -0.318D-05 0.355D-05-0.116D-06-0.213D-06 0.149D-05 0.802D-05
 Coeff-Com:  0.268D-05-0.306D-04-0.625D-04 0.995D-05 0.117D-03 0.324D-03
 Coeff-Com:  0.146D-02 0.312D-02 0.119D-02-0.219D-01-0.406D-01-0.193D-01
 Coeff-Com:  0.219D+00 0.857D+00
 Coeff:     -0.318D-05 0.355D-05-0.116D-06-0.213D-06 0.149D-05 0.802D-05
 Coeff:      0.268D-05-0.306D-04-0.625D-04 0.995D-05 0.117D-03 0.324D-03
 Coeff:      0.146D-02 0.312D-02 0.119D-02-0.219D-01-0.406D-01-0.193D-01
 Coeff:      0.219D+00 0.857D+00
 Gap=     0.128 Goal=   None    Shift=    0.000
 Gap=     0.100 Goal=   None    Shift=    0.000
 DSYEVD-2 returned Info=     2869466 IAlg= 4 N=  1706 NDim=  1706 NE2=     1252286 trying  DSYEV.
 RMSDP=5.62D-09 MaxDP=6.62D-07 DE= 1.09D-10 OVMax= 1.25D-06

 SCF Done:  E(UTPSSh) =  -3487.99584569     A.U. after   21 cycles
            NFock= 21  Conv=0.56D-08     -V/T= 2.0033
 <Sx>= 0.0000 <Sy>= 0.0000 <Sz>= 1.0000 <S**2>= 2.0444 S= 1.0147
 <L.S>= 0.000000000000E+00
 KE= 3.476358340477D+03 PE=-2.192415476832D+04 EE= 8.099785622654D+03
 Annihilation of the first spin contaminant:
 S**2 before annihilation     2.0444,   after     2.0008
 Leave Link  502 at Mon Jul 22 20:58:09 2019, MaxMem=  2147483648 cpu:          195377.0 elap:           12232.6
 (Enter /apps/gaussian/16/A.03/g16/l601.exe)
 Copying SCF densities to generalized density rwf, IOpCl= 1 IROHF=0.

 **********************************************************************

            Population analysis using the SCF density.

 **********************************************************************

 Alpha  occ. eigenvalues -- -255.80532 -76.93159 -76.93159 -29.84466 -25.68680
 Alpha  occ. eigenvalues --  -25.68376 -25.66221 -14.22764 -10.14287 -10.14287
 Alpha  occ. eigenvalues --  -10.13906 -10.13906 -10.11715 -10.11715 -10.11675
 Alpha  occ. eigenvalues --  -10.11675 -10.11429 -10.11428 -10.11250 -10.11250
 Alpha  occ. eigenvalues --  -10.11104 -10.11104 -10.10810 -10.10810 -10.10506
 Alpha  occ. eigenvalues --  -10.10506 -10.10451 -10.10451 -10.10448 -10.10448
 Alpha  occ. eigenvalues --  -10.09849 -10.09848 -10.09401 -10.09400 -10.09089
 Alpha  occ. eigenvalues --  -10.09089 -10.08917 -10.08917 -10.08905 -10.08905
 Alpha  occ. eigenvalues --  -10.08897 -10.08897 -10.08869 -10.08869 -10.08594
 Alpha  occ. eigenvalues --  -10.08561  -6.48465  -6.48465  -4.63422  -4.63422
 Alpha  occ. eigenvalues --   -4.63402  -4.63402  -4.63006  -4.63005  -3.39219
 Alpha  occ. eigenvalues --   -2.19216  -2.17513  -2.13137  -0.89556  -0.81908
 Alpha  occ. eigenvalues --   -0.81009  -0.80709  -0.80667  -0.78981  -0.78969
 Alpha  occ. eigenvalues --   -0.78023  -0.76919  -0.75476  -0.73122  -0.69486
 Alpha  occ. eigenvalues --   -0.68437  -0.68389  -0.67870  -0.67672  -0.67502
 Alpha  occ. eigenvalues --   -0.66979  -0.66915  -0.66775  -0.66736  -0.66705
 Alpha  occ. eigenvalues --   -0.66377  -0.65448  -0.65444  -0.65195  -0.65006
 Alpha  occ. eigenvalues --   -0.59999  -0.59714  -0.58251  -0.57113  -0.55495
 Alpha  occ. eigenvalues --   -0.53820  -0.53772  -0.51733  -0.51275  -0.50085
 Alpha  occ. eigenvalues --   -0.50064  -0.49166  -0.46832  -0.46388  -0.45593
 Alpha  occ. eigenvalues --   -0.45345  -0.45326  -0.44288  -0.44191  -0.43813
 Alpha  occ. eigenvalues --   -0.43684  -0.43095  -0.42736  -0.42579  -0.42437
 Alpha  occ. eigenvalues --   -0.42133  -0.41521  -0.41329  -0.41176  -0.41136
 Alpha  occ. eigenvalues --   -0.41036  -0.40676  -0.40517  -0.40252  -0.39760
 Alpha  occ. eigenvalues --   -0.39496  -0.39398  -0.38721  -0.38623  -0.38567
 Alpha  occ. eigenvalues --   -0.38006  -0.37542  -0.37430  -0.36959  -0.36954
 Alpha  occ. eigenvalues --   -0.36849  -0.36603  -0.36574  -0.36508  -0.36342
 Alpha  occ. eigenvalues --   -0.35993  -0.35967  -0.35439  -0.34889  -0.34705
 Alpha  occ. eigenvalues --   -0.34559  -0.34332  -0.34053  -0.34021  -0.34002
 Alpha  occ. eigenvalues --   -0.33664  -0.33629  -0.33433  -0.32738  -0.32578
 Alpha  occ. eigenvalues --   -0.32247  -0.31847  -0.31734  -0.31582  -0.31403
 Alpha  occ. eigenvalues --   -0.31392  -0.31034  -0.30827  -0.30776  -0.29610
 Alpha  occ. eigenvalues --   -0.29202  -0.28896  -0.28671  -0.28267  -0.28130
 Alpha  occ. eigenvalues --   -0.27847  -0.27703  -0.27138  -0.24495  -0.24090
 Alpha  occ. eigenvalues --   -0.23734  -0.23382  -0.22526  -0.21005  -0.19893
 Alpha  occ. eigenvalues --   -0.19783  -0.18191  -0.15845
 Alpha virt. eigenvalues --   -0.03067  -0.02571  -0.01817   0.00315   0.01620
 Alpha virt. eigenvalues --    0.02638   0.02972   0.03039   0.03464   0.03764
 Alpha virt. eigenvalues --    0.03768   0.04512   0.04576   0.04897   0.05193
 Alpha virt. eigenvalues --    0.05488   0.05696   0.06030   0.06542   0.06861
 Alpha virt. eigenvalues --    0.06869   0.07214   0.07626   0.07875   0.07956
 Alpha virt. eigenvalues --    0.07975   0.08065   0.08597   0.08714   0.08942
 Alpha virt. eigenvalues --    0.09101   0.09165   0.09500   0.09518   0.09590
 Alpha virt. eigenvalues --    0.09982   0.10094   0.10160   0.10577   0.10676
 Alpha virt. eigenvalues --    0.10766   0.11084   0.11526   0.11673   0.11751
 Alpha virt. eigenvalues --    0.11887   0.12468   0.12546   0.12929   0.12984
 Alpha virt. eigenvalues --    0.13159   0.13235   0.13925   0.13932   0.13978
 Alpha virt. eigenvalues --    0.14253   0.14531   0.14613   0.14711   0.15063
 Alpha virt. eigenvalues --    0.15096   0.15123   0.15291   0.15586   0.15799
 Alpha virt. eigenvalues --    0.15829   0.15986   0.15989   0.16341   0.16383
 Alpha virt. eigenvalues --    0.16512   0.16745   0.16951   0.17038   0.17136
 Alpha virt. eigenvalues --    0.17375   0.17482   0.17617   0.17751   0.17966
 Alpha virt. eigenvalues --    0.18038   0.18199   0.18387   0.18611   0.19058
 Alpha virt. eigenvalues --    0.19369   0.19445   0.19446   0.19617   0.19664
 Alpha virt. eigenvalues --    0.20406   0.20406   0.20674   0.20963   0.21023
 Alpha virt. eigenvalues --    0.21579   0.21695   0.21734   0.22083   0.22314
 Alpha virt. eigenvalues --    0.22490   0.22544   0.23128   0.23390   0.23547
 Alpha virt. eigenvalues --    0.23684   0.23880   0.24163   0.24377   0.24605
 Alpha virt. eigenvalues --    0.24754   0.25176   0.25458   0.25715   0.25786
 Alpha virt. eigenvalues --    0.26294   0.26380   0.26488   0.26901   0.26931
 Alpha virt. eigenvalues --    0.27743   0.27858   0.28012   0.28121   0.28518
 Alpha virt. eigenvalues --    0.28604   0.29012   0.29095   0.29120   0.29347
 Alpha virt. eigenvalues --    0.29354   0.29939   0.29975   0.30332   0.30700
 Alpha virt. eigenvalues --    0.30805   0.30919   0.31198   0.31602   0.31617
 Alpha virt. eigenvalues --    0.32066   0.32110   0.32466   0.32507   0.32897
 Alpha virt. eigenvalues --    0.33136   0.33229   0.33683   0.33956   0.33976
 Alpha virt. eigenvalues --    0.34347   0.34554   0.35088   0.35354   0.35465
 Alpha virt. eigenvalues --    0.35640   0.35700   0.35845   0.36421   0.36433
 Alpha virt. eigenvalues --    0.36784   0.36809   0.36972   0.36985   0.37361
 Alpha virt. eigenvalues --    0.37423   0.37741   0.38642   0.38678   0.38737
 Alpha virt. eigenvalues --    0.38969   0.39153   0.39242   0.39654   0.39879
 Alpha virt. eigenvalues --    0.39947   0.39996   0.40560   0.40612   0.40856
 Alpha virt. eigenvalues --    0.41068   0.41150   0.41317   0.41318   0.42012
 Alpha virt. eigenvalues --    0.42100   0.42264   0.42492   0.42607   0.42945
 Alpha virt. eigenvalues --    0.42948   0.43305   0.43346   0.43590   0.43619
 Alpha virt. eigenvalues --    0.43832   0.44170   0.44284   0.44331   0.44672
 Alpha virt. eigenvalues --    0.44720   0.44788   0.44987   0.45130   0.45151
 Alpha virt. eigenvalues --    0.45233   0.45412   0.45575   0.45782   0.45866
 Alpha virt. eigenvalues --    0.46083   0.46156   0.46352   0.46462   0.46571
 Alpha virt. eigenvalues --    0.46627   0.46908   0.46923   0.46988   0.47327
 Alpha virt. eigenvalues --    0.47414   0.47527   0.47585   0.47628   0.47824
 Alpha virt. eigenvalues --    0.47888   0.48117   0.48495   0.48660   0.48772
 Alpha virt. eigenvalues --    0.48962   0.49343   0.49444   0.49574   0.49771
 Alpha virt. eigenvalues --    0.49828   0.50037   0.50320   0.50515   0.50915
 Alpha virt. eigenvalues --    0.50991   0.51491   0.51633   0.51990   0.52315
 Alpha virt. eigenvalues --    0.52501   0.52633   0.52729   0.53390   0.53502
 Alpha virt. eigenvalues --    0.53546   0.53898   0.54153   0.54239   0.54666
 Alpha virt. eigenvalues --    0.54974   0.55197   0.55638   0.55824   0.55863
 Alpha virt. eigenvalues --    0.56238   0.56244   0.56512   0.56859   0.57149
 Alpha virt. eigenvalues --    0.57183   0.57684   0.57870   0.58008   0.58173
 Alpha virt. eigenvalues --    0.58206   0.58651   0.58829   0.58925   0.59642
 Alpha virt. eigenvalues --    0.59665   0.59916   0.60019   0.60851   0.60944
 Alpha virt. eigenvalues --    0.61112   0.61600   0.61829   0.62001   0.62197
 Alpha virt. eigenvalues --    0.62323   0.62529   0.62698   0.63829   0.63844
 Alpha virt. eigenvalues --    0.63922   0.64014   0.64474   0.64676   0.65044
 Alpha virt. eigenvalues --    0.65771   0.66154   0.66180   0.66826   0.67193
 Alpha virt. eigenvalues --    0.67630   0.67899   0.68073   0.68273   0.68288
 Alpha virt. eigenvalues --    0.68742   0.69198   0.69497   0.70238   0.70487
 Alpha virt. eigenvalues --    0.70728   0.70907   0.71424   0.71426   0.71890
 Alpha virt. eigenvalues --    0.72196   0.72238   0.72442   0.72642   0.72647
 Alpha virt. eigenvalues --    0.73059   0.73496   0.73932   0.74053   0.74382
 Alpha virt. eigenvalues --    0.74449   0.74574   0.74627   0.75150   0.75610
 Alpha virt. eigenvalues --    0.75737   0.75914   0.76452   0.76777   0.76817
 Alpha virt. eigenvalues --    0.77341   0.77774   0.78105   0.78110   0.78635
 Alpha virt. eigenvalues --    0.79015   0.79385   0.79393   0.79628   0.80254
 Alpha virt. eigenvalues --    0.80355   0.80397   0.80928   0.81051   0.81645
 Alpha virt. eigenvalues --    0.81736   0.82400   0.82675   0.83035   0.83114
 Alpha virt. eigenvalues --    0.83756   0.83787   0.83932   0.84371   0.84855
 Alpha virt. eigenvalues --    0.84914   0.85494   0.85560   0.85996   0.86109
 Alpha virt. eigenvalues --    0.86443   0.86912   0.86992   0.87183   0.87569
 Alpha virt. eigenvalues --    0.87792   0.87895   0.88012   0.88514   0.88914
 Alpha virt. eigenvalues --    0.89036   0.89771   0.90010   0.90204   0.90244
 Alpha virt. eigenvalues --    0.91160   0.91267   0.91619   0.92000   0.92435
 Alpha virt. eigenvalues --    0.92638   0.92731   0.93131   0.93396   0.93776
 Alpha virt. eigenvalues --    0.93988   0.94135   0.94743   0.94874   0.95204
 Alpha virt. eigenvalues --    0.95348   0.95389   0.95556   0.95825   0.96232
 Alpha virt. eigenvalues --    0.96474   0.97152   0.97488   0.97917   0.97992
 Alpha virt. eigenvalues --    0.98185   0.98852   0.99182   0.99224   0.99518
 Alpha virt. eigenvalues --    1.00013   1.00209   1.00558   1.00802   1.00984
 Alpha virt. eigenvalues --    1.01490   1.02199   1.02367   1.03029   1.03259
 Alpha virt. eigenvalues --    1.03374   1.04219   1.04773   1.04884   1.05266
 Alpha virt. eigenvalues --    1.05610   1.05701   1.06019   1.06796   1.07347
 Alpha virt. eigenvalues --    1.07588   1.07748   1.08172   1.08736   1.08785
 Alpha virt. eigenvalues --    1.09204   1.09594   1.09988   1.10130   1.10656
 Alpha virt. eigenvalues --    1.10739   1.10894   1.11267   1.12286   1.12311
 Alpha virt. eigenvalues --    1.12469   1.12631   1.12808   1.12927   1.13823
 Alpha virt. eigenvalues --    1.13979   1.14226   1.14404   1.14636   1.14771
 Alpha virt. eigenvalues --    1.15473   1.16013   1.16148   1.16168   1.16251
 Alpha virt. eigenvalues --    1.17165   1.17450   1.17794   1.17842   1.17987
 Alpha virt. eigenvalues --    1.18351   1.18423   1.18879   1.19088   1.19568
 Alpha virt. eigenvalues --    1.20099   1.20126   1.20850   1.21295   1.21682
 Alpha virt. eigenvalues --    1.22131   1.22239   1.22709   1.22882   1.23210
 Alpha virt. eigenvalues --    1.23212   1.23639   1.24674   1.25221   1.25580
 Alpha virt. eigenvalues --    1.25697   1.25940   1.26505   1.26897   1.26899
 Alpha virt. eigenvalues --    1.27214   1.27618   1.28263   1.28771   1.28860
 Alpha virt. eigenvalues --    1.29150   1.29874   1.29944   1.30333   1.30815
 Alpha virt. eigenvalues --    1.31138   1.31237   1.31537   1.31564   1.32208
 Alpha virt. eigenvalues --    1.32371   1.32611   1.33657   1.34076   1.34291
 Alpha virt. eigenvalues --    1.34688   1.34811   1.35503   1.35827   1.36872
 Alpha virt. eigenvalues --    1.37274   1.37575   1.37738   1.38168   1.38305
 Alpha virt. eigenvalues --    1.38574   1.39219   1.39773   1.40952   1.41442
 Alpha virt. eigenvalues --    1.41976   1.42775   1.43223   1.43552   1.44088
 Alpha virt. eigenvalues --    1.44558   1.44651   1.44967   1.45777   1.46061
 Alpha virt. eigenvalues --    1.46859   1.47480   1.47585   1.47700   1.48683
 Alpha virt. eigenvalues --    1.48969   1.49323   1.49757   1.49915   1.50698
 Alpha virt. eigenvalues --    1.50884   1.51434   1.51760   1.52171   1.52375
 Alpha virt. eigenvalues --    1.53036   1.53545   1.54117   1.54316   1.54584
 Alpha virt. eigenvalues --    1.55357   1.55406   1.55604   1.55822   1.56063
 Alpha virt. eigenvalues --    1.56169   1.56525   1.56998   1.57018   1.57086
 Alpha virt. eigenvalues --    1.57540   1.57821   1.58203   1.58647   1.58705
 Alpha virt. eigenvalues --    1.58948   1.59091   1.59330   1.59430   1.59763
 Alpha virt. eigenvalues --    1.60240   1.60374   1.60720   1.60868   1.60868
 Alpha virt. eigenvalues --    1.61137   1.61216   1.61503   1.61669   1.61937
 Alpha virt. eigenvalues --    1.62476   1.62545   1.62707   1.62893   1.62952
 Alpha virt. eigenvalues --    1.63211   1.63253   1.63461   1.63546   1.64007
 Alpha virt. eigenvalues --    1.64415   1.64446   1.64672   1.65123   1.65221
 Alpha virt. eigenvalues --    1.65282   1.65578   1.65923   1.66196   1.66394
 Alpha virt. eigenvalues --    1.66764   1.66822   1.67086   1.67124   1.67264
 Alpha virt. eigenvalues --    1.67393   1.67968   1.68211   1.68383   1.68576
 Alpha virt. eigenvalues --    1.69105   1.69250   1.69910   1.70079   1.70746
 Alpha virt. eigenvalues --    1.70748   1.71035   1.71173   1.71367   1.71501
 Alpha virt. eigenvalues --    1.72128   1.72162   1.72789   1.73162   1.73202
 Alpha virt. eigenvalues --    1.74001   1.74101   1.74416   1.74513   1.74549
 Alpha virt. eigenvalues --    1.74763   1.75064   1.75520   1.75769   1.76101
 Alpha virt. eigenvalues --    1.76238   1.77043   1.77124   1.77464   1.77580
 Alpha virt. eigenvalues --    1.77927   1.78540   1.79253   1.79440   1.79767
 Alpha virt. eigenvalues --    1.80128   1.80957   1.80962   1.81151   1.81472
 Alpha virt. eigenvalues --    1.82124   1.82994   1.83121   1.83862   1.84149
 Alpha virt. eigenvalues --    1.84664   1.85077   1.85335   1.85514   1.86297
 Alpha virt. eigenvalues --    1.86421   1.86620   1.86660   1.87368   1.87607
 Alpha virt. eigenvalues --    1.87866   1.87895   1.88832   1.88957   1.89684
 Alpha virt. eigenvalues --    1.89762   1.90029   1.90705   1.91200   1.91340
 Alpha virt. eigenvalues --    1.91730   1.92590   1.92902   1.93081   1.93930
 Alpha virt. eigenvalues --    1.94274   1.94567   1.94778   1.95925   1.96203
 Alpha virt. eigenvalues --    1.96546   1.96785   1.97227   1.97421   1.97813
 Alpha virt. eigenvalues --    1.98098   1.98856   1.99166   1.99717   1.99778
 Alpha virt. eigenvalues --    2.00244   2.00485   2.00921   2.00991   2.01484
 Alpha virt. eigenvalues --    2.01956   2.02649   2.02751   2.03177   2.03668
 Alpha virt. eigenvalues --    2.03742   2.03785   2.04070   2.04076   2.04433
 Alpha virt. eigenvalues --    2.04670   2.04925   2.05579   2.05944   2.06336
 Alpha virt. eigenvalues --    2.07010   2.07018   2.08140   2.08314   2.08729
 Alpha virt. eigenvalues --    2.08958   2.09347   2.10746   2.11353   2.11890
 Alpha virt. eigenvalues --    2.12009   2.12245   2.12911   2.13138   2.14000
 Alpha virt. eigenvalues --    2.14453   2.14669   2.14699   2.15017   2.15774
 Alpha virt. eigenvalues --    2.15991   2.16598   2.16754   2.17363   2.17489
 Alpha virt. eigenvalues --    2.18103   2.18263   2.18570   2.19472   2.19804
 Alpha virt. eigenvalues --    2.20242   2.20279   2.21256   2.21476   2.21723
 Alpha virt. eigenvalues --    2.21740   2.22680   2.22965   2.23259   2.23518
 Alpha virt. eigenvalues --    2.23733   2.24905   2.25683   2.25878   2.26291
 Alpha virt. eigenvalues --    2.26440   2.26639   2.27146   2.27266   2.28312
 Alpha virt. eigenvalues --    2.28317   2.28621   2.28971   2.28982   2.29356
 Alpha virt. eigenvalues --    2.29902   2.30536   2.30564   2.31613   2.32160
 Alpha virt. eigenvalues --    2.32359   2.32858   2.33128   2.33234   2.33356
 Alpha virt. eigenvalues --    2.34000   2.34060   2.34080   2.34496   2.35237
 Alpha virt. eigenvalues --    2.35575   2.35856   2.36234   2.36436   2.36617
 Alpha virt. eigenvalues --    2.36903   2.36995   2.37244   2.37630   2.37882
 Alpha virt. eigenvalues --    2.38174   2.38195   2.38413   2.38506   2.38727
 Alpha virt. eigenvalues --    2.38938   2.39509   2.39589   2.40027   2.40159
 Alpha virt. eigenvalues --    2.40674   2.40982   2.41149   2.41598   2.41795
 Alpha virt. eigenvalues --    2.41981   2.42792   2.42884   2.43109   2.43537
 Alpha virt. eigenvalues --    2.44042   2.44375   2.44453   2.44621   2.44834
 Alpha virt. eigenvalues --    2.45028   2.45204   2.45311   2.45857   2.46308
 Alpha virt. eigenvalues --    2.46494   2.46515   2.46939   2.47268   2.47609
 Alpha virt. eigenvalues --    2.48211   2.48368   2.48695   2.48860   2.49538
 Alpha virt. eigenvalues --    2.49703   2.49969   2.50014   2.50829   2.51717
 Alpha virt. eigenvalues --    2.51786   2.52132   2.52627   2.53213   2.53627
 Alpha virt. eigenvalues --    2.53909   2.54049   2.54058   2.54393   2.54891
 Alpha virt. eigenvalues --    2.55313   2.55717   2.55799   2.55937   2.56282
 Alpha virt. eigenvalues --    2.56304   2.56422   2.56972   2.57109   2.57271
 Alpha virt. eigenvalues --    2.57798   2.58413   2.58746   2.58805   2.59051
 Alpha virt. eigenvalues --    2.59064   2.59204   2.59280   2.60148   2.60234
 Alpha virt. eigenvalues --    2.60430   2.60438   2.61068   2.61218   2.61484
 Alpha virt. eigenvalues --    2.61889   2.62207   2.62266   2.62765   2.62939
 Alpha virt. eigenvalues --    2.63096   2.63450   2.63847   2.63970   2.64442
 Alpha virt. eigenvalues --    2.64456   2.64692   2.65022   2.65091   2.65508
 Alpha virt. eigenvalues --    2.65564   2.65682   2.65778   2.66095   2.66267
 Alpha virt. eigenvalues --    2.66478   2.66998   2.67226   2.67264   2.67425
 Alpha virt. eigenvalues --    2.67588   2.67931   2.68556   2.68697   2.68821
 Alpha virt. eigenvalues --    2.68840   2.69058   2.69345   2.69612   2.70163
 Alpha virt. eigenvalues --    2.70331   2.70624   2.70815   2.70875   2.71105
 Alpha virt. eigenvalues --    2.71353   2.71496   2.71976   2.71993   2.72237
 Alpha virt. eigenvalues --    2.72545   2.72668   2.73013   2.73280   2.73463
 Alpha virt. eigenvalues --    2.73479   2.74181   2.75448   2.75876   2.75957
 Alpha virt. eigenvalues --    2.76332   2.76890   2.77344   2.77964   2.78136
 Alpha virt. eigenvalues --    2.78640   2.79036   2.79895   2.79913   2.80159
 Alpha virt. eigenvalues --    2.80305   2.80619   2.80993   2.81423   2.81851
 Alpha virt. eigenvalues --    2.82131   2.82167   2.82992   2.83347   2.83572
 Alpha virt. eigenvalues --    2.83998   2.84650   2.84843   2.85373   2.85548
 Alpha virt. eigenvalues --    2.86231   2.86391   2.86513   2.86786   2.87196
 Alpha virt. eigenvalues --    2.87437   2.87539   2.88223   2.88409   2.88426
 Alpha virt. eigenvalues --    2.88780   2.88934   2.89043   2.89397   2.89747
 Alpha virt. eigenvalues --    2.90172   2.90596   2.90936   2.91280   2.91519
 Alpha virt. eigenvalues --    2.92029   2.92341   2.92374   2.93030   2.93323
 Alpha virt. eigenvalues --    2.93957   2.94174   2.94435   2.94531   2.95236
 Alpha virt. eigenvalues --    2.95637   2.96140   2.96464   2.96652   2.97415
 Alpha virt. eigenvalues --    2.97501   2.98033   2.98069   2.98216   2.98982
 Alpha virt. eigenvalues --    2.99339   2.99564   3.00643   3.01816   3.02261
 Alpha virt. eigenvalues --    3.02344   3.03674   3.04529   3.04775   3.05283
 Alpha virt. eigenvalues --    3.05796   3.06716   3.06789   3.07584   3.08083
 Alpha virt. eigenvalues --    3.08962   3.09156   3.09715   3.10149   3.10734
 Alpha virt. eigenvalues --    3.10820   3.11874   3.12042   3.12243   3.12891
 Alpha virt. eigenvalues --    3.12940   3.13627   3.13703   3.14212   3.14457
 Alpha virt. eigenvalues --    3.14728   3.15095   3.15675   3.16213   3.16390
 Alpha virt. eigenvalues --    3.16867   3.17006   3.17106   3.17331   3.17973
 Alpha virt. eigenvalues --    3.18322   3.18427   3.19220   3.19336   3.19605
 Alpha virt. eigenvalues --    3.19614   3.20431   3.20661   3.20962   3.21278
 Alpha virt. eigenvalues --    3.21500   3.21676   3.21906   3.22017   3.22836
 Alpha virt. eigenvalues --    3.22898   3.23409   3.23534   3.23897   3.24004
 Alpha virt. eigenvalues --    3.24436   3.24621   3.24630   3.24788   3.25082
 Alpha virt. eigenvalues --    3.25549   3.25559   3.25601   3.25985   3.26099
 Alpha virt. eigenvalues --    3.26269   3.27190   3.27270   3.28137   3.28240
 Alpha virt. eigenvalues --    3.28410   3.28678   3.28954   3.29358   3.29996
 Alpha virt. eigenvalues --    3.30342   3.31012   3.31170   3.31745   3.31844
 Alpha virt. eigenvalues --    3.32363   3.32796   3.33094   3.33263   3.33662
 Alpha virt. eigenvalues --    3.33917   3.34421   3.35038   3.35509   3.36019
 Alpha virt. eigenvalues --    3.36495   3.36622   3.36760   3.36996   3.37244
 Alpha virt. eigenvalues --    3.37390   3.37524   3.37581   3.38012   3.38137
 Alpha virt. eigenvalues --    3.38431   3.38913   3.38973   3.39396   3.39535
 Alpha virt. eigenvalues --    3.39550   3.39853   3.40289   3.40445   3.40634
 Alpha virt. eigenvalues --    3.40776   3.40970   3.41575   3.41671   3.41698
 Alpha virt. eigenvalues --    3.42210   3.42221   3.42342   3.42584   3.42799
 Alpha virt. eigenvalues --    3.43081   3.43198   3.43331   3.43485   3.43659
 Alpha virt. eigenvalues --    3.43708   3.43871   3.44245   3.44910   3.45115
 Alpha virt. eigenvalues --    3.45246   3.45400   3.45560   3.45762   3.45887
 Alpha virt. eigenvalues --    3.45892   3.46337   3.46861   3.47064   3.47417
 Alpha virt. eigenvalues --    3.47499   3.47645   3.48018   3.48060   3.48765
 Alpha virt. eigenvalues --    3.48912   3.49224   3.50146   3.50487   3.50649
 Alpha virt. eigenvalues --    3.50787   3.51152   3.51492   3.51640   3.51941
 Alpha virt. eigenvalues --    3.52045   3.52943   3.52993   3.53461   3.54393
 Alpha virt. eigenvalues --    3.54478   3.54975   3.55426   3.55491   3.55523
 Alpha virt. eigenvalues --    3.56106   3.56316   3.56724   3.57300   3.57774
 Alpha virt. eigenvalues --    3.58112   3.58443   3.59242   3.59729   3.60439
 Alpha virt. eigenvalues --    3.61016   3.61839   3.61893   3.62102   3.63320
 Alpha virt. eigenvalues --    3.63797   3.63870   3.64641   3.64818   3.65202
 Alpha virt. eigenvalues --    3.65379   3.65695   3.65771   3.66550   3.67011
 Alpha virt. eigenvalues --    3.67184   3.67402   3.67830   3.67941   3.68345
 Alpha virt. eigenvalues --    3.68690   3.68717   3.68943   3.69005   3.69440
 Alpha virt. eigenvalues --    3.70021   3.70339   3.71058   3.71277   3.71920
 Alpha virt. eigenvalues --    3.71968   3.72097   3.72340   3.72496   3.73149
 Alpha virt. eigenvalues --    3.73367   3.73476   3.74208   3.74232   3.74894
 Alpha virt. eigenvalues --    3.75240   3.76028   3.76123   3.76636   3.77018
 Alpha virt. eigenvalues --    3.77048   3.77165   3.77536   3.78135   3.78420
 Alpha virt. eigenvalues --    3.78884   3.79270   3.79734   3.80382   3.80646
 Alpha virt. eigenvalues --    3.81264   3.82794   3.83210   3.83671   3.83751
 Alpha virt. eigenvalues --    3.84177   3.84264   3.85652   3.86156   3.86723
 Alpha virt. eigenvalues --    3.86935   3.87811   3.88508   3.89430   3.91412
 Alpha virt. eigenvalues --    3.91718   3.92423   3.92704   3.93666   3.94897
 Alpha virt. eigenvalues --    3.95381   3.96888   3.96904   3.98323   3.99834
 Alpha virt. eigenvalues --    3.99922   4.00638   4.01198   4.01902   4.02053
 Alpha virt. eigenvalues --    4.03184   4.03450   4.03814   4.03842   4.05927
 Alpha virt. eigenvalues --    4.07101   4.07165   4.08258   4.08480   4.08726
 Alpha virt. eigenvalues --    4.09020   4.09862   4.10070   4.10203   4.10822
 Alpha virt. eigenvalues --    4.11009   4.11715   4.11825   4.12204   4.12623
 Alpha virt. eigenvalues --    4.12804   4.12830   4.13177   4.13305   4.13822
 Alpha virt. eigenvalues --    4.14376   4.14533   4.14829   4.15263   4.15450
 Alpha virt. eigenvalues --    4.15508   4.16004   4.16067   4.16474   4.16942
 Alpha virt. eigenvalues --    4.17408   4.17540   4.17820   4.18057   4.18205
 Alpha virt. eigenvalues --    4.18336   4.18629   4.18938   4.19686   4.19901
 Alpha virt. eigenvalues --    4.20060   4.20142   4.20423   4.20521   4.21422
 Alpha virt. eigenvalues --    4.21435   4.21712   4.22132   4.22295   4.22989
 Alpha virt. eigenvalues --    4.23470   4.24661   4.24877   4.24930   4.25256
 Alpha virt. eigenvalues --    4.25734   4.26141   4.26964   4.27290   4.27773
 Alpha virt. eigenvalues --    4.27880   4.28389   4.28784   4.29361   4.29826
 Alpha virt. eigenvalues --    4.30347   4.31628   4.31679   4.32450   4.33130
 Alpha virt. eigenvalues --    4.33757   4.33989   4.35622   4.36882   4.37154
 Alpha virt. eigenvalues --    4.37164   4.37632   4.39510   4.39728   4.41275
 Alpha virt. eigenvalues --    4.41835   4.43627   4.43822   4.44169   4.44344
 Alpha virt. eigenvalues --    4.45293   4.45359   4.46495   4.47259   4.47457
 Alpha virt. eigenvalues --    4.47792   4.48278   4.48371   4.48592   4.49546
 Alpha virt. eigenvalues --    4.49915   4.50261   4.50888   4.51670   4.51818
 Alpha virt. eigenvalues --    4.52196   4.52646   4.52962   4.53384   4.53428
 Alpha virt. eigenvalues --    4.53870   4.53993   4.54141   4.54784   4.55144
 Alpha virt. eigenvalues --    4.56455   4.56996   4.57417   4.58356   4.58391
 Alpha virt. eigenvalues --    4.59930   4.60013   4.60394   4.60487   4.60966
 Alpha virt. eigenvalues --    4.61965   4.62048   4.63001   4.63700   4.63982
 Alpha virt. eigenvalues --    4.64447   4.65164   4.65173   4.66170   4.66528
 Alpha virt. eigenvalues --    4.66817   4.67203   4.67776   4.68374   4.68938
 Alpha virt. eigenvalues --    4.69397   4.69573   4.70368   4.70393   4.70564
 Alpha virt. eigenvalues --    4.71592   4.72340   4.72538   4.73546   4.77566
 Alpha virt. eigenvalues --    4.77773   4.78501   4.79415   4.80508   4.81237
 Alpha virt. eigenvalues --    4.81665   4.82100   4.83484   4.84087   4.84906
 Alpha virt. eigenvalues --    4.88491   4.88781   4.90178   4.91126   4.93153
 Alpha virt. eigenvalues --    4.93395   4.93949   4.95554   4.97118   4.97953
 Alpha virt. eigenvalues --    4.98127   4.98214   4.99081   4.99772   4.99863
 Alpha virt. eigenvalues --    5.00244   5.01823   5.02242   5.02263   5.02998
 Alpha virt. eigenvalues --    5.05590   5.05683   5.05825   5.07617   5.07961
 Alpha virt. eigenvalues --    5.08156   5.09372   5.10027   5.11131   5.13061
 Alpha virt. eigenvalues --    5.14664   5.21108   5.27284   5.28298   5.28406
 Alpha virt. eigenvalues --    5.29560   5.35651   5.37256   5.41085   5.41444
 Alpha virt. eigenvalues --    5.44486   5.47291   5.52633   5.54160   5.60392
 Alpha virt. eigenvalues --    5.61915   5.63467   5.70980   5.73778   5.85599
 Alpha virt. eigenvalues --    5.85970   5.91206   5.96134   6.06637   6.15332
 Alpha virt. eigenvalues --    6.45065   7.74002   7.88338   7.93574   7.94559
 Alpha virt. eigenvalues --    7.96507   8.06211  15.43861  15.46356  22.46449
 Alpha virt. eigenvalues --   22.48958  22.49636  22.50028  22.50224  22.50293
 Alpha virt. eigenvalues --   22.51080  22.51733  22.52286  22.52754  22.56166
 Alpha virt. eigenvalues --   22.56262  22.57261  22.57269  22.58960  22.60615
 Alpha virt. eigenvalues --   22.62948  22.63909  22.64899  22.66776  22.67405
 Alpha virt. eigenvalues --   22.69557  22.70187  22.76960  22.80050  22.83039
 Alpha virt. eigenvalues --   22.83592  22.90728  22.96156  23.02393  23.07185
 Alpha virt. eigenvalues --   23.12055  23.14828  23.31436  23.35095  23.44482
 Alpha virt. eigenvalues --   23.65966  23.97997  32.88195
  Beta  occ. eigenvalues -- -255.80467 -76.93188 -76.93188 -29.80855 -25.65341
  Beta  occ. eigenvalues --  -25.64424 -25.64414 -14.22763 -10.14295 -10.14295
  Beta  occ. eigenvalues --  -10.13915 -10.13915 -10.11716 -10.11716 -10.11691
  Beta  occ. eigenvalues --  -10.11691 -10.11435 -10.11434 -10.11246 -10.11246
  Beta  occ. eigenvalues --  -10.11107 -10.11107 -10.10813 -10.10813 -10.10506
  Beta  occ. eigenvalues --  -10.10506 -10.10450 -10.10449 -10.10438 -10.10438
  Beta  occ. eigenvalues --  -10.09846 -10.09846 -10.09388 -10.09388 -10.09089
  Beta  occ. eigenvalues --  -10.09089 -10.08920 -10.08920 -10.08911 -10.08910
  Beta  occ. eigenvalues --  -10.08896 -10.08896 -10.08869 -10.08869 -10.08585
  Beta  occ. eigenvalues --  -10.08552  -6.48495  -6.48495  -4.63445  -4.63445
  Beta  occ. eigenvalues --   -4.63426  -4.63425  -4.63079  -4.63078  -3.29705
  Beta  occ. eigenvalues --   -2.07438  -2.07384  -2.05500  -0.89521  -0.81907
  Beta  occ. eigenvalues --   -0.81011  -0.80713  -0.80681  -0.78989  -0.78977
  Beta  occ. eigenvalues --   -0.78023  -0.76912  -0.75474  -0.73135  -0.69493
  Beta  occ. eigenvalues --   -0.68440  -0.68392  -0.67873  -0.67669  -0.67503
  Beta  occ. eigenvalues --   -0.66982  -0.66918  -0.66793  -0.66734  -0.66705
  Beta  occ. eigenvalues --   -0.66377  -0.65446  -0.65443  -0.65206  -0.65016
  Beta  occ. eigenvalues --   -0.60035  -0.59771  -0.58261  -0.57109  -0.55492
  Beta  occ. eigenvalues --   -0.53835  -0.53786  -0.51738  -0.51281  -0.50104
  Beta  occ. eigenvalues --   -0.50069  -0.49181  -0.46831  -0.46381  -0.45599
  Beta  occ. eigenvalues --   -0.45355  -0.45328  -0.44292  -0.44212  -0.43804
  Beta  occ. eigenvalues --   -0.43709  -0.43095  -0.42727  -0.42588  -0.42438
  Beta  occ. eigenvalues --   -0.42125  -0.41519  -0.41330  -0.41171  -0.41134
  Beta  occ. eigenvalues --   -0.41052  -0.40678  -0.40508  -0.40257  -0.39739
  Beta  occ. eigenvalues --   -0.39482  -0.39408  -0.38724  -0.38573  -0.38566
  Beta  occ. eigenvalues --   -0.38005  -0.37515  -0.37423  -0.36966  -0.36947
  Beta  occ. eigenvalues --   -0.36848  -0.36604  -0.36570  -0.36510  -0.36333
  Beta  occ. eigenvalues --   -0.35992  -0.35923  -0.35437  -0.34884  -0.34702
  Beta  occ. eigenvalues --   -0.34561  -0.34330  -0.34022  -0.34021  -0.33919
  Beta  occ. eigenvalues --   -0.33663  -0.33564  -0.33297  -0.32748  -0.32573
  Beta  occ. eigenvalues --   -0.32242  -0.31850  -0.31672  -0.31582  -0.31409
  Beta  occ. eigenvalues --   -0.31349  -0.30972  -0.30821  -0.30595  -0.29607
  Beta  occ. eigenvalues --   -0.29151  -0.28891  -0.28550  -0.28242  -0.27910
  Beta  occ. eigenvalues --   -0.27674  -0.27502  -0.26096  -0.24023  -0.23740
  Beta  occ. eigenvalues --   -0.23034  -0.20869  -0.18387  -0.16515  -0.16349
  Beta  occ. eigenvalues --   -0.15295
  Beta virt. eigenvalues --   -0.05334  -0.05306  -0.02768  -0.01364   0.00385
  Beta virt. eigenvalues --    0.01917   0.02118   0.02693   0.03106   0.03240
  Beta virt. eigenvalues --    0.03564   0.03870   0.03942   0.04532   0.04651
  Beta virt. eigenvalues --    0.05102   0.05223   0.05568   0.05710   0.06105
  Beta virt. eigenvalues --    0.06577   0.06891   0.06897   0.07213   0.07637
  Beta virt. eigenvalues --    0.07953   0.07965   0.08038   0.08151   0.08615
  Beta virt. eigenvalues --    0.08763   0.09132   0.09168   0.09240   0.09512
  Beta virt. eigenvalues --    0.09518   0.09743   0.09965   0.10107   0.10185
  Beta virt. eigenvalues --    0.10581   0.10803   0.10894   0.11090   0.11625
  Beta virt. eigenvalues --    0.11756   0.11884   0.12010   0.12480   0.12566
  Beta virt. eigenvalues --    0.12980   0.13093   0.13161   0.13259   0.13939
  Beta virt. eigenvalues --    0.13948   0.14018   0.14284   0.14580   0.14619
  Beta virt. eigenvalues --    0.14776   0.15096   0.15120   0.15178   0.15285
  Beta virt. eigenvalues --    0.15662   0.15809   0.15832   0.15999   0.16041
  Beta virt. eigenvalues --    0.16362   0.16386   0.16575   0.16900   0.17034
  Beta virt. eigenvalues --    0.17078   0.17214   0.17379   0.17480   0.17689
  Beta virt. eigenvalues --    0.17753   0.18029   0.18077   0.18204   0.18386
  Beta virt. eigenvalues --    0.18610   0.19132   0.19436   0.19466   0.19540
  Beta virt. eigenvalues --    0.19688   0.19722   0.20415   0.20453   0.20693
  Beta virt. eigenvalues --    0.21029   0.21050   0.21576   0.21749   0.21766
  Beta virt. eigenvalues --    0.22362   0.22498   0.22780   0.22838   0.23315
  Beta virt. eigenvalues --    0.23429   0.23556   0.23698   0.24020   0.24250
  Beta virt. eigenvalues --    0.24367   0.24705   0.24734   0.25184   0.25650
  Beta virt. eigenvalues --    0.25706   0.25886   0.26285   0.26394   0.26724
  Beta virt. eigenvalues --    0.26902   0.27060   0.27766   0.28039   0.28050
  Beta virt. eigenvalues --    0.28188   0.28515   0.28617   0.29033   0.29118
  Beta virt. eigenvalues --    0.29264   0.29352   0.29475   0.29974   0.30012
  Beta virt. eigenvalues --    0.30434   0.30821   0.30951   0.30986   0.31211
  Beta virt. eigenvalues --    0.31600   0.31641   0.32069   0.32234   0.32474
  Beta virt. eigenvalues --    0.32615   0.32899   0.33145   0.33283   0.33908
  Beta virt. eigenvalues --    0.33981   0.34005   0.34541   0.34604   0.35080
  Beta virt. eigenvalues --    0.35365   0.35469   0.35662   0.35713   0.36010
  Beta virt. eigenvalues --    0.36433   0.36475   0.36812   0.36908   0.37001
  Beta virt. eigenvalues --    0.37115   0.37364   0.37620   0.37742   0.38646
  Beta virt. eigenvalues --    0.38727   0.38798   0.38979   0.39150   0.39472
  Beta virt. eigenvalues --    0.39656   0.39919   0.39968   0.40068   0.40619
  Beta virt. eigenvalues --    0.40669   0.41004   0.41091   0.41213   0.41309
  Beta virt. eigenvalues --    0.41464   0.42098   0.42115   0.42345   0.42607
  Beta virt. eigenvalues --    0.42609   0.42950   0.42967   0.43347   0.43353
  Beta virt. eigenvalues --    0.43601   0.43644   0.43921   0.44181   0.44354
  Beta virt. eigenvalues --    0.44364   0.44665   0.44739   0.44797   0.45004
  Beta virt. eigenvalues --    0.45145   0.45214   0.45285   0.45422   0.45618
  Beta virt. eigenvalues --    0.45795   0.45916   0.46158   0.46165   0.46361
  Beta virt. eigenvalues --    0.46471   0.46582   0.46636   0.46928   0.46999
  Beta virt. eigenvalues --    0.47022   0.47338   0.47430   0.47533   0.47589
  Beta virt. eigenvalues --    0.47625   0.47884   0.47892   0.48155   0.48562
  Beta virt. eigenvalues --    0.48666   0.48772   0.49048   0.49338   0.49480
  Beta virt. eigenvalues --    0.49567   0.49804   0.49830   0.50031   0.50401
  Beta virt. eigenvalues --    0.50514   0.50901   0.51081   0.51494   0.51715
  Beta virt. eigenvalues --    0.52251   0.52304   0.52639   0.52738   0.52866
  Beta virt. eigenvalues --    0.53489   0.53522   0.53660   0.54103   0.54218
  Beta virt. eigenvalues --    0.54299   0.54803   0.54967   0.55271   0.55640
  Beta virt. eigenvalues --    0.55819   0.55960   0.56238   0.56254   0.56512
  Beta virt. eigenvalues --    0.56887   0.57145   0.57254   0.57691   0.57932
  Beta virt. eigenvalues --    0.58028   0.58182   0.58285   0.58687   0.58844
  Beta virt. eigenvalues --    0.59013   0.59662   0.59682   0.59977   0.60021
  Beta virt. eigenvalues --    0.60935   0.61069   0.61138   0.61641   0.61827
  Beta virt. eigenvalues --    0.62010   0.62245   0.62342   0.62577   0.62942
  Beta virt. eigenvalues --    0.63858   0.63891   0.64014   0.64040   0.64472
  Beta virt. eigenvalues --    0.64777   0.65041   0.65909   0.66145   0.66243
  Beta virt. eigenvalues --    0.66857   0.67320   0.67638   0.68029   0.68170
  Beta virt. eigenvalues --    0.68262   0.68393   0.68772   0.69211   0.69670
  Beta virt. eigenvalues --    0.70352   0.70488   0.70781   0.70909   0.71411
  Beta virt. eigenvalues --    0.71610   0.72005   0.72224   0.72409   0.72551
  Beta virt. eigenvalues --    0.72650   0.72769   0.73076   0.73616   0.73961
  Beta virt. eigenvalues --    0.74118   0.74428   0.74451   0.74593   0.74659
  Beta virt. eigenvalues --    0.75193   0.75742   0.75743   0.75912   0.76510
  Beta virt. eigenvalues --    0.76832   0.76848   0.77336   0.77844   0.78112
  Beta virt. eigenvalues --    0.78215   0.78641   0.79108   0.79428   0.79554
  Beta virt. eigenvalues --    0.79679   0.80260   0.80463   0.80546   0.80966
  Beta virt. eigenvalues --    0.81239   0.81748   0.81842   0.82423   0.82669
  Beta virt. eigenvalues --    0.83099   0.83195   0.83790   0.83841   0.84025
  Beta virt. eigenvalues --    0.84370   0.84941   0.85023   0.85502   0.85595
  Beta virt. eigenvalues --    0.85993   0.86164   0.86454   0.86934   0.86996
  Beta virt. eigenvalues --    0.87193   0.87685   0.87868   0.87941   0.88026
  Beta virt. eigenvalues --    0.88607   0.88912   0.89121   0.89913   0.90098
  Beta virt. eigenvalues --    0.90244   0.90309   0.91270   0.91285   0.91629
  Beta virt. eigenvalues --    0.92110   0.92474   0.92656   0.92730   0.93163
  Beta virt. eigenvalues --    0.93408   0.93860   0.93994   0.94149   0.94741
  Beta virt. eigenvalues --    0.94901   0.95212   0.95400   0.95425   0.95787
  Beta virt. eigenvalues --    0.95888   0.96247   0.96569   0.97165   0.97575
  Beta virt. eigenvalues --    0.97980   0.97992   0.98377   0.98859   0.99225
  Beta virt. eigenvalues --    0.99228   0.99546   1.00230   1.00324   1.00562
  Beta virt. eigenvalues --    1.00891   1.01022   1.01499   1.02301   1.02401
  Beta virt. eigenvalues --    1.03132   1.03390   1.03395   1.04339   1.04781
  Beta virt. eigenvalues --    1.05309   1.05428   1.05709   1.05713   1.06028
  Beta virt. eigenvalues --    1.06870   1.07389   1.07623   1.07757   1.08402
  Beta virt. eigenvalues --    1.08754   1.09063   1.09538   1.09612   1.10083
  Beta virt. eigenvalues --    1.10198   1.10654   1.10948   1.11123   1.11326
  Beta virt. eigenvalues --    1.12324   1.12388   1.12509   1.12776   1.12859
  Beta virt. eigenvalues --    1.12922   1.13837   1.14046   1.14262   1.14519
  Beta virt. eigenvalues --    1.14640   1.14871   1.15547   1.16008   1.16232
  Beta virt. eigenvalues --    1.16274   1.16747   1.17167   1.17802   1.17840
  Beta virt. eigenvalues --    1.17850   1.18122   1.18406   1.18807   1.18891
  Beta virt. eigenvalues --    1.19233   1.19832   1.20119   1.20289   1.20871
  Beta virt. eigenvalues --    1.21649   1.21799   1.22210   1.22502   1.22720
  Beta virt. eigenvalues --    1.23078   1.23235   1.23577   1.23768   1.24688
  Beta virt. eigenvalues --    1.25375   1.25747   1.25934   1.25976   1.26536
  Beta virt. eigenvalues --    1.26942   1.27082   1.27269   1.27646   1.28280
  Beta virt. eigenvalues --    1.28768   1.29009   1.29363   1.29912   1.30119
  Beta virt. eigenvalues --    1.30361   1.30908   1.31131   1.31242   1.31579
  Beta virt. eigenvalues --    1.31708   1.32206   1.32529   1.32793   1.33696
  Beta virt. eigenvalues --    1.34128   1.34294   1.34705   1.34816   1.35537
  Beta virt. eigenvalues --    1.35991   1.36943   1.37376   1.37699   1.37751
  Beta virt. eigenvalues --    1.38191   1.38324   1.38729   1.39226   1.39885
  Beta virt. eigenvalues --    1.41007   1.41615   1.42114   1.42899   1.43272
  Beta virt. eigenvalues --    1.43556   1.44344   1.44658   1.44675   1.45111
  Beta virt. eigenvalues --    1.45927   1.46074   1.46902   1.47497   1.47681
  Beta virt. eigenvalues --    1.47729   1.49084   1.49345   1.49361   1.49760
  Beta virt. eigenvalues --    1.50038   1.50690   1.51027   1.51495   1.51846
  Beta virt. eigenvalues --    1.52176   1.52444   1.53025   1.53610   1.54289
  Beta virt. eigenvalues --    1.54322   1.54591   1.55415   1.55449   1.55659
  Beta virt. eigenvalues --    1.55821   1.56069   1.56306   1.56590   1.57043
  Beta virt. eigenvalues --    1.57053   1.57124   1.57619   1.57867   1.58210
  Beta virt. eigenvalues --    1.58700   1.58794   1.58958   1.59133   1.59346
  Beta virt. eigenvalues --    1.59507   1.59769   1.60230   1.60399   1.60764
  Beta virt. eigenvalues --    1.60869   1.60884   1.61199   1.61246   1.61500
  Beta virt. eigenvalues --    1.61740   1.61941   1.62500   1.62573   1.62749
  Beta virt. eigenvalues --    1.62895   1.63055   1.63215   1.63300   1.63502
  Beta virt. eigenvalues --    1.63563   1.64011   1.64415   1.64512   1.64741
  Beta virt. eigenvalues --    1.65163   1.65226   1.65348   1.65575   1.66006
  Beta virt. eigenvalues --    1.66207   1.66459   1.66794   1.66821   1.67087
  Beta virt. eigenvalues --    1.67140   1.67333   1.67395   1.67986   1.68292
  Beta virt. eigenvalues --    1.68406   1.68663   1.69096   1.69343   1.69924
  Beta virt. eigenvalues --    1.70156   1.70758   1.70787   1.71023   1.71175
  Beta virt. eigenvalues --    1.71430   1.71639   1.72162   1.72237   1.72817
  Beta virt. eigenvalues --    1.73169   1.73273   1.74050   1.74122   1.74508
  Beta virt. eigenvalues --    1.74531   1.74566   1.74855   1.75064   1.75624
  Beta virt. eigenvalues --    1.75832   1.76167   1.76235   1.77090   1.77181
  Beta virt. eigenvalues --    1.77519   1.77690   1.77977   1.78554   1.79277
  Beta virt. eigenvalues --    1.79470   1.79840   1.80149   1.81029   1.81071
  Beta virt. eigenvalues --    1.81212   1.81481   1.82237   1.83008   1.83146
  Beta virt. eigenvalues --    1.83906   1.84157   1.84702   1.85207   1.85412
  Beta virt. eigenvalues --    1.85524   1.86328   1.86442   1.86664   1.86711
  Beta virt. eigenvalues --    1.87437   1.87659   1.87921   1.87949   1.88845
  Beta virt. eigenvalues --    1.88979   1.89667   1.89828   1.90029   1.90778
  Beta virt. eigenvalues --    1.91254   1.91461   1.91755   1.92604   1.92950
  Beta virt. eigenvalues --    1.93107   1.94017   1.94363   1.94602   1.94861
  Beta virt. eigenvalues --    1.96030   1.96224   1.96553   1.96795   1.97403
  Beta virt. eigenvalues --    1.97451   1.97916   1.98116   1.98875   1.99251
  Beta virt. eigenvalues --    1.99768   1.99831   2.00277   2.00483   2.00953
  Beta virt. eigenvalues --    2.01137   2.01497   2.01962   2.02714   2.02725
  Beta virt. eigenvalues --    2.03374   2.03681   2.03756   2.03798   2.04072
  Beta virt. eigenvalues --    2.04121   2.04494   2.04671   2.04934   2.05618
  Beta virt. eigenvalues --    2.05941   2.06355   2.07026   2.07137   2.08160
  Beta virt. eigenvalues --    2.08303   2.08918   2.08993   2.09425   2.10848
  Beta virt. eigenvalues --    2.11394   2.11916   2.12020   2.12622   2.13031
  Beta virt. eigenvalues --    2.13173   2.14040   2.14463   2.14686   2.14760
  Beta virt. eigenvalues --    2.15076   2.15797   2.15989   2.16675   2.16727
  Beta virt. eigenvalues --    2.17379   2.17491   2.18098   2.18288   2.18709
  Beta virt. eigenvalues --    2.19564   2.19810   2.20289   2.20324   2.21262
  Beta virt. eigenvalues --    2.21568   2.21720   2.22058   2.22796   2.22968
  Beta virt. eigenvalues --    2.23527   2.23557   2.23847   2.25221   2.25679
  Beta virt. eigenvalues --    2.25972   2.26313   2.26460   2.26820   2.27165
  Beta virt. eigenvalues --    2.27276   2.28339   2.28505   2.28636   2.29041
  Beta virt. eigenvalues --    2.29070   2.29798   2.29932   2.30549   2.30625
  Beta virt. eigenvalues --    2.31641   2.32161   2.32715   2.32877   2.33298
  Beta virt. eigenvalues --    2.33421   2.33503   2.34000   2.34087   2.34177
  Beta virt. eigenvalues --    2.34758   2.35236   2.35653   2.35874   2.36361
  Beta virt. eigenvalues --    2.36440   2.36741   2.36936   2.37063   2.37354
  Beta virt. eigenvalues --    2.37642   2.37891   2.38176   2.38200   2.38440
  Beta virt. eigenvalues --    2.38720   2.38795   2.38981   2.39506   2.39653
  Beta virt. eigenvalues --    2.40095   2.40160   2.40675   2.41010   2.41168
  Beta virt. eigenvalues --    2.41691   2.41803   2.42055   2.42878   2.42939
  Beta virt. eigenvalues --    2.43105   2.43852   2.44082   2.44391   2.44466
  Beta virt. eigenvalues --    2.44646   2.45040   2.45055   2.45292   2.45310
  Beta virt. eigenvalues --    2.45860   2.46359   2.46622   2.46836   2.46967
  Beta virt. eigenvalues --    2.47571   2.47623   2.48367   2.48375   2.48732
  Beta virt. eigenvalues --    2.48869   2.49639   2.49824   2.50009   2.50170
  Beta virt. eigenvalues --    2.50837   2.51746   2.51866   2.52215   2.52753
  Beta virt. eigenvalues --    2.53270   2.53715   2.54008   2.54061   2.54197
  Beta virt. eigenvalues --    2.54412   2.54892   2.55466   2.55720   2.55845
  Beta virt. eigenvalues --    2.56036   2.56282   2.56348   2.56420   2.57020
  Beta virt. eigenvalues --    2.57148   2.57293   2.57995   2.58409   2.58752
  Beta virt. eigenvalues --    2.58883   2.59063   2.59112   2.59208   2.59324
  Beta virt. eigenvalues --    2.60158   2.60252   2.60452   2.60462   2.61151
  Beta virt. eigenvalues --    2.61221   2.61555   2.61904   2.62207   2.62286
  Beta virt. eigenvalues --    2.62775   2.63105   2.63119   2.63490   2.63901
  Beta virt. eigenvalues --    2.63963   2.64467   2.64484   2.64757   2.65016
  Beta virt. eigenvalues --    2.65137   2.65528   2.65565   2.65686   2.65840
  Beta virt. eigenvalues --    2.66150   2.66268   2.66529   2.66999   2.67249
  Beta virt. eigenvalues --    2.67268   2.67442   2.67587   2.68016   2.68583
  Beta virt. eigenvalues --    2.68701   2.68872   2.68931   2.69065   2.69361
  Beta virt. eigenvalues --    2.69627   2.70236   2.70332   2.70660   2.70865
  Beta virt. eigenvalues --    2.70876   2.71148   2.71358   2.71551   2.71975
  Beta virt. eigenvalues --    2.72017   2.72304   2.72558   2.72732   2.73047
  Beta virt. eigenvalues --    2.73299   2.73498   2.73591   2.74344   2.75455
  Beta virt. eigenvalues --    2.75931   2.76058   2.76404   2.76977   2.77442
  Beta virt. eigenvalues --    2.77990   2.78170   2.78668   2.79053   2.79918
  Beta virt. eigenvalues --    2.79944   2.80178   2.80417   2.80720   2.81023
  Beta virt. eigenvalues --    2.81461   2.81904   2.82203   2.82282   2.83028
  Beta virt. eigenvalues --    2.83365   2.83576   2.84154   2.84660   2.84850
  Beta virt. eigenvalues --    2.85425   2.85569   2.86231   2.86431   2.86539
  Beta virt. eigenvalues --    2.86795   2.87216   2.87434   2.87554   2.88219
  Beta virt. eigenvalues --    2.88428   2.88450   2.88803   2.88968   2.89068
  Beta virt. eigenvalues --    2.89392   2.89792   2.90170   2.90592   2.90959
  Beta virt. eigenvalues --    2.91285   2.91535   2.92066   2.92344   2.92403
  Beta virt. eigenvalues --    2.93040   2.93399   2.93998   2.94182   2.94433
  Beta virt. eigenvalues --    2.94545   2.95257   2.95627   2.96207   2.96478
  Beta virt. eigenvalues --    2.96653   2.97447   2.97516   2.98041   2.98096
  Beta virt. eigenvalues --    2.98300   2.99021   2.99426   2.99573   3.00669
  Beta virt. eigenvalues --    3.01831   3.02272   3.02405   3.03726   3.04547
  Beta virt. eigenvalues --    3.04790   3.05283   3.05976   3.06716   3.06811
  Beta virt. eigenvalues --    3.07634   3.08093   3.08964   3.09191   3.09729
  Beta virt. eigenvalues --    3.10229   3.10738   3.10861   3.11960   3.12044
  Beta virt. eigenvalues --    3.12305   3.12904   3.12968   3.13629   3.13725
  Beta virt. eigenvalues --    3.14212   3.14477   3.14736   3.15117   3.15734
  Beta virt. eigenvalues --    3.16215   3.16416   3.16894   3.17021   3.17133
  Beta virt. eigenvalues --    3.17334   3.18007   3.18330   3.18451   3.19223
  Beta virt. eigenvalues --    3.19380   3.19611   3.19832   3.20437   3.20704
  Beta virt. eigenvalues --    3.20980   3.21288   3.21535   3.21683   3.21968
  Beta virt. eigenvalues --    3.22064   3.22839   3.22923   3.23491   3.23537
  Beta virt. eigenvalues --    3.23901   3.24066   3.24433   3.24623   3.24664
  Beta virt. eigenvalues --    3.24887   3.25085   3.25549   3.25586   3.25631
  Beta virt. eigenvalues --    3.26022   3.26194   3.26279   3.27200   3.27295
  Beta virt. eigenvalues --    3.28223   3.28247   3.28532   3.28768   3.28976
  Beta virt. eigenvalues --    3.29367   3.30104   3.30363   3.31028   3.31188
  Beta virt. eigenvalues --    3.31837   3.31845   3.32387   3.32802   3.33190
  Beta virt. eigenvalues --    3.33275   3.33804   3.33920   3.34433   3.35096
  Beta virt. eigenvalues --    3.35528   3.36081   3.36543   3.36620   3.36807
  Beta virt. eigenvalues --    3.36994   3.37250   3.37438   3.37570   3.37585
  Beta virt. eigenvalues --    3.38019   3.38175   3.38457   3.38920   3.39036
  Beta virt. eigenvalues --    3.39433   3.39536   3.39649   3.39856   3.40317
  Beta virt. eigenvalues --    3.40448   3.40647   3.40775   3.41046   3.41577
  Beta virt. eigenvalues --    3.41697   3.41764   3.42218   3.42246   3.42353
  Beta virt. eigenvalues --    3.42600   3.42802   3.43083   3.43270   3.43332
  Beta virt. eigenvalues --    3.43606   3.43707   3.43711   3.43959   3.44311
  Beta virt. eigenvalues --    3.44917   3.45115   3.45331   3.45404   3.45627
  Beta virt. eigenvalues --    3.45768   3.45891   3.45989   3.46343   3.46866
  Beta virt. eigenvalues --    3.47132   3.47422   3.47578   3.47660   3.48037
  Beta virt. eigenvalues --    3.48086   3.48853   3.48926   3.49258   3.50151
  Beta virt. eigenvalues --    3.50490   3.50671   3.51012   3.51156   3.51660
  Beta virt. eigenvalues --    3.51927   3.51955   3.52160   3.52945   3.53069
  Beta virt. eigenvalues --    3.53458   3.54447   3.54497   3.55035   3.55514
  Beta virt. eigenvalues --    3.55528   3.55672   3.56362   3.56684   3.57026
  Beta virt. eigenvalues --    3.57312   3.57778   3.58334   3.58449   3.59340
  Beta virt. eigenvalues --    3.59729   3.60625   3.61839   3.62064   3.62127
  Beta virt. eigenvalues --    3.63110   3.63335   3.63814   3.64143   3.64653
  Beta virt. eigenvalues --    3.64875   3.65313   3.65469   3.65750   3.66561
  Beta virt. eigenvalues --    3.66807   3.67185   3.67223   3.67410   3.67903
  Beta virt. eigenvalues --    3.68042   3.68520   3.68720   3.68817   3.69022
  Beta virt. eigenvalues --    3.69400   3.69443   3.70038   3.70348   3.71296
  Beta virt. eigenvalues --    3.71848   3.71978   3.72185   3.72368   3.72560
  Beta virt. eigenvalues --    3.72828   3.73404   3.73516   3.74095   3.74271
  Beta virt. eigenvalues --    3.74562   3.75159   3.75290   3.76052   3.76670
  Beta virt. eigenvalues --    3.76872   3.77052   3.77232   3.77526   3.77556
  Beta virt. eigenvalues --    3.78214   3.78791   3.78922   3.79376   3.79778
  Beta virt. eigenvalues --    3.80863   3.81308   3.81855   3.83073   3.83231
  Beta virt. eigenvalues --    3.83693   3.84202   3.84253   3.84845   3.86154
  Beta virt. eigenvalues --    3.86443   3.86893   3.87842   3.88346   3.88722
  Beta virt. eigenvalues --    3.89559   3.91537   3.91957   3.92779   3.92952
  Beta virt. eigenvalues --    3.94020   3.95194   3.96975   3.97488   3.98437
  Beta virt. eigenvalues --    3.99600   4.00463   4.00554   4.00806   4.01368
  Beta virt. eigenvalues --    4.02033   4.02278   4.03214   4.03551   4.03832
  Beta virt. eigenvalues --    4.04311   4.06261   4.07252   4.07698   4.08554
  Beta virt. eigenvalues --    4.08894   4.09290   4.09765   4.09891   4.10297
  Beta virt. eigenvalues --    4.10653   4.10978   4.11670   4.11986   4.12029
  Beta virt. eigenvalues --    4.12639   4.12781   4.13169   4.13821   4.13896
  Beta virt. eigenvalues --    4.14407   4.14527   4.14852   4.15441   4.15611
  Beta virt. eigenvalues --    4.15626   4.15674   4.16304   4.16674   4.16796
  Beta virt. eigenvalues --    4.17391   4.17464   4.18040   4.18236   4.18314
  Beta virt. eigenvalues --    4.18384   4.18650   4.19297   4.19562   4.19594
  Beta virt. eigenvalues --    4.20309   4.20383   4.20570   4.20734   4.21476
  Beta virt. eigenvalues --    4.21524   4.21789   4.22263   4.22542   4.22766
  Beta virt. eigenvalues --    4.23302   4.24096   4.24916   4.24928   4.25335
  Beta virt. eigenvalues --    4.25789   4.26013   4.26270   4.26943   4.27406
  Beta virt. eigenvalues --    4.27645   4.27984   4.28095   4.28454   4.29077
  Beta virt. eigenvalues --    4.29881   4.29897   4.31336   4.31734   4.32539
  Beta virt. eigenvalues --    4.32732   4.33300   4.33934   4.34591   4.35762
  Beta virt. eigenvalues --    4.37097   4.37401   4.37537   4.38515   4.40954
  Beta virt. eigenvalues --    4.41129   4.43394   4.43677   4.43942   4.43957
  Beta virt. eigenvalues --    4.44196   4.45300   4.45727   4.46521   4.46674
  Beta virt. eigenvalues --    4.47615   4.47736   4.47960   4.48335   4.48600
  Beta virt. eigenvalues --    4.48644   4.49553   4.50014   4.50267   4.51431
  Beta virt. eigenvalues --    4.51684   4.52203   4.52511   4.52916   4.52964
  Beta virt. eigenvalues --    4.53395   4.53469   4.53881   4.54188   4.54539
  Beta virt. eigenvalues --    4.54801   4.55157   4.56473   4.57021   4.57426
  Beta virt. eigenvalues --    4.58444   4.58521   4.59944   4.60042   4.60411
  Beta virt. eigenvalues --    4.60513   4.60976   4.62030   4.62055   4.63001
  Beta virt. eigenvalues --    4.63804   4.64010   4.64461   4.65210   4.65232
  Beta virt. eigenvalues --    4.66180   4.66702   4.66827   4.67216   4.67869
  Beta virt. eigenvalues --    4.68402   4.68936   4.69526   4.69568   4.70394
  Beta virt. eigenvalues --    4.70439   4.70587   4.71628   4.72423   4.72558
  Beta virt. eigenvalues --    4.73570   4.77568   4.77787   4.78516   4.79430
  Beta virt. eigenvalues --    4.80504   4.81244   4.81693   4.82094   4.83504
  Beta virt. eigenvalues --    4.84107   4.84938   4.88496   4.88792   4.90206
  Beta virt. eigenvalues --    4.91224   4.93177   4.93391   4.93981   4.95563
  Beta virt. eigenvalues --    4.97132   4.97975   4.98126   4.98222   4.99092
  Beta virt. eigenvalues --    4.99776   4.99875   5.00282   5.01831   5.02305
  Beta virt. eigenvalues --    5.02449   5.03038   5.05622   5.05710   5.05845
  Beta virt. eigenvalues --    5.07628   5.07957   5.08154   5.09417   5.10038
  Beta virt. eigenvalues --    5.11139   5.13080   5.14671   5.21241   5.27299
  Beta virt. eigenvalues --    5.28430   5.28559   5.29574   5.35680   5.37269
  Beta virt. eigenvalues --    5.41128   5.41466   5.44530   5.47417   5.52710
  Beta virt. eigenvalues --    5.54171   5.60430   5.61935   5.63492   5.70995
  Beta virt. eigenvalues --    5.73832   5.85747   5.86006   5.91251   5.96164
  Beta virt. eigenvalues --    6.06645   6.15500   6.45114   7.74016   7.88271
  Beta virt. eigenvalues --    7.93554   7.94516   7.96434   8.06142  15.43806
  Beta virt. eigenvalues --   15.46294  22.46451  22.48959  22.49635  22.50029
  Beta virt. eigenvalues --   22.50224  22.50294  22.51081  22.51729  22.52285
  Beta virt. eigenvalues --   22.52757  22.56165  22.56262  22.57261  22.57270
  Beta virt. eigenvalues --   22.58960  22.60615  22.62949  22.63909  22.64895
  Beta virt. eigenvalues --   22.66766  22.67400  22.69541  22.70171  22.76958
  Beta virt. eigenvalues --   22.80046  22.83026  22.83584  22.90725  22.96156
  Beta virt. eigenvalues --   23.02390  23.07185  23.12070  23.14841  23.31447
  Beta virt. eigenvalues --   23.35100  23.44491  23.65973  23.98001  32.88204
          Condensed to atoms (all electrons):
          Atomic-Atomic Spin Densities.
 Mulliken charges and spin densities:
               1          2
     1  Fe  -0.193634   2.299148
     2  P    0.317997  -0.104294
     3  P    0.317997  -0.104294
     4  N   -0.347754  -0.030453
     5  C    0.396340  -0.001142
     6  C   -0.278802   0.009185
     7  C   -0.226706  -0.003563
     8  C    0.266310   0.008583
     9  C   -0.381674  -0.004616
    10  C    0.003891   0.006726
    11  C    0.003891   0.006726
    12  C   -0.381674  -0.004616
    13  C    0.266310   0.008583
    14  C   -0.226706  -0.003563
    15  C   -0.278802   0.009185
    16  C    0.396340  -0.001142
    17  C   -0.259315  -0.001099
    18  C   -0.259315  -0.001099
    19  C    0.019976  -0.000871
    20  C   -0.358437   0.000038
    21  C   -0.340166   0.000180
    22  C   -0.338680   0.000194
    23  C    0.019976  -0.000871
    24  C   -0.338680   0.000194
    25  C   -0.340166   0.000180
    26  C   -0.358437   0.000038
    27  C    0.040191   0.005820
    28  C   -0.397995   0.000766
    29  C   -0.344037  -0.000497
    30  C   -0.330016  -0.000926
    31  C    0.006803   0.005645
    32  C   -0.356334   0.000276
    33  C   -0.341251   0.000823
    34  C   -0.336784  -0.000880
    35  C    0.040191   0.005820
    36  C   -0.397995   0.000766
    37  C   -0.344037  -0.000497
    38  C   -0.330016  -0.000926
    39  C    0.006803   0.005645
    40  C   -0.356334   0.000276
    41  C   -0.341251   0.000823
    42  C   -0.336784  -0.000880
    43  H   -0.131978  -0.102508
    44  H    0.082694  -0.000095
    45  H    0.085616   0.000105
    46  H    0.085616   0.000105
    47  H    0.082694  -0.000095
    48  H    0.113061   0.000622
    49  H    0.119378  -0.003147
    50  H    0.119378  -0.003147
    51  H    0.113061   0.000622
    52  H    0.113768  -0.000012
    53  H    0.118420  -0.000005
    54  H    0.116080  -0.000009
    55  H    0.105107   0.000110
    56  H    0.111900  -0.000007
    57  H    0.113526   0.000004
    58  H    0.106360   0.000095
    59  H    0.110055   0.000005
    60  H    0.112034  -0.000016
    61  H    0.106360   0.000095
    62  H    0.112034  -0.000016
    63  H    0.110055   0.000005
    64  H    0.105107   0.000110
    65  H    0.113526   0.000004
    66  H    0.111900  -0.000007
    67  H    0.113768  -0.000012
    68  H    0.116080  -0.000009
    69  H    0.118420  -0.000005
    70  H    0.141194  -0.000348
    71  H    0.132612  -0.000017
    72  H    0.115433   0.000230
    73  H    0.140315  -0.000042
    74  H    0.108053  -0.000134
    75  H    0.104538  -0.000145
    76  H    0.100785   0.000059
    77  H    0.112566  -0.000519
    78  H    0.124281   0.000033
    79  H    0.162534  -0.000034
    80  H    0.128038  -0.000018
    81  H    0.110854   0.000177
    82  H    0.103897  -0.000145
    83  H    0.111241   0.000000
    84  H    0.140431   0.000461
    85  H    0.120889   0.000026
    86  H    0.113201  -0.000714
    87  H    0.096510   0.000037
    88  H    0.132612  -0.000017
    89  H    0.141194  -0.000348
    90  H    0.115433   0.000230
    91  H    0.140315  -0.000042
    92  H    0.104538  -0.000145
    93  H    0.108053  -0.000134
    94  H    0.124281   0.000033
    95  H    0.112566  -0.000519
    96  H    0.100785   0.000059
    97  H    0.128038  -0.000018
    98  H    0.162534  -0.000034
    99  H    0.110854   0.000177
   100  H    0.140431   0.000461
   101  H    0.111241   0.000000
   102  H    0.103897  -0.000145
   103  H    0.096510   0.000037
   104  H    0.113201  -0.000714
   105  H    0.120889   0.000026
 Sum of Mulliken charges =  -0.00000   2.00000
 Mulliken charges and spin densities with hydrogens summed into heavy atoms:
               1          2
     1  Fe  -0.325611   2.196640
     2  P    0.317997  -0.104294
     3  P    0.317997  -0.104294
     4  N   -0.347754  -0.030453
     5  C    0.396340  -0.001142
     6  C   -0.278802   0.009185
     7  C   -0.144012  -0.003658
     8  C    0.266310   0.008583
     9  C   -0.296058  -0.004511
    10  C    0.003891   0.006726
    11  C    0.003891   0.006726
    12  C   -0.296058  -0.004511
    13  C    0.266310   0.008583
    14  C   -0.144012  -0.003658
    15  C   -0.278802   0.009185
    16  C    0.396340  -0.001142
    17  C   -0.026876  -0.003625
    18  C   -0.026876  -0.003625
    19  C    0.019976  -0.000871
    20  C   -0.010169   0.000011
    21  C   -0.009633   0.000287
    22  C   -0.010231   0.000278
    23  C    0.019976  -0.000871
    24  C   -0.010231   0.000278
    25  C   -0.009633   0.000287
    26  C   -0.010169   0.000011
    27  C    0.040191   0.005820
    28  C   -0.008756   0.000631
    29  C    0.008869  -0.000817
    30  C    0.007616  -0.001352
    31  C    0.006803   0.005645
    32  C    0.045093   0.000400
    33  C    0.014318   0.001140
    34  C   -0.006185  -0.001530
    35  C    0.040191   0.005820
    36  C   -0.008756   0.000631
    37  C    0.008869  -0.000817
    38  C    0.007616  -0.001352
    39  C    0.006803   0.005645
    40  C    0.045093   0.000400
    41  C    0.014318   0.001140
    42  C   -0.006185  -0.001530
 Electronic spatial extent (au):  <R**2>=          31017.6089
 Charge=             -0.0000 electrons
 Dipole moment (field-independent basis, Debye):
    X=              4.4908    Y=             -0.0000    Z=              1.6223  Tot=              4.7749
 Quadrupole moment (field-independent basis, Debye-Ang):
   XX=           -303.1444   YY=           -272.4710   ZZ=           -285.3125
   XY=              0.0000   XZ=             -0.9359   YZ=              0.0000
 Traceless Quadrupole moment (field-independent basis, Debye-Ang):
   XX=            -16.1685   YY=             14.5050   ZZ=              1.6635
   XY=              0.0000   XZ=             -0.9359   YZ=              0.0000
 Octapole moment (field-independent basis, Debye-Ang**2):
  XXX=           1436.4549  YYY=              0.0000  ZZZ=            637.2952  XYY=            480.2728
  XXY=             -0.0000  XXZ=            195.4798  XZZ=            478.8812  YZZ=             -0.0000
  YYZ=            213.4295  XYZ=             -0.0000
 Hexadecapole moment (field-independent basis, Debye-Ang**3):
 XXXX=         -20104.5149 YYYY=         -17720.2990 ZZZZ=          -6263.0831 XXXY=              0.0000
 XXXZ=          -3310.4274 YYYX=              0.0000 YYYZ=              0.0000 ZZZX=          -3534.4028
 ZZZY=             -0.0000 XXYY=          -6259.2284 XXZZ=          -4325.4245 YYZZ=          -3960.9230
 XXYZ=              0.0000 YYXZ=          -1153.7348 ZZXY=              0.0000
 N-N= 6.860014959496D+03 E-N=-2.192415469745D+04  KE= 3.476358340477D+03
                          Isotropic Fermi Contact Couplings
        Atom                 a.u.       MegaHertz       Gauss      10(-4) cm-1
     1  Fe(57)             0.65549      47.53634      16.96215      15.85642
     2  P(31)             -0.05971     -54.07413     -19.29500     -18.03719
     3  P(31)             -0.05971     -54.07413     -19.29500     -18.03719
     4  N(14)             -0.01927      -3.11381      -1.11108      -1.03865
     5  C(13)             -0.00266      -1.49552      -0.53364      -0.49885
     6  C(13)              0.00038       0.21308       0.07603       0.07107
     7  C(13)             -0.00057      -0.32301      -0.11526      -0.10775
     8  C(13)              0.00055       0.31183       0.11127       0.10402
     9  C(13)             -0.00063      -0.35172      -0.12550      -0.11732
    10  C(13)             -0.00007      -0.03938      -0.01405      -0.01314
    11  C(13)             -0.00007      -0.03938      -0.01405      -0.01314
    12  C(13)             -0.00063      -0.35172      -0.12550      -0.11732
    13  C(13)              0.00055       0.31183       0.11127       0.10402
    14  C(13)             -0.00057      -0.32301      -0.11526      -0.10775
    15  C(13)              0.00038       0.21308       0.07603       0.07107
    16  C(13)             -0.00266      -1.49552      -0.53364      -0.49885
    17  C(13)             -0.00641      -3.60459      -1.28621      -1.20236
    18  C(13)             -0.00641      -3.60459      -1.28621      -1.20236
    19  C(13)             -0.00023      -0.13023      -0.04647      -0.04344
    20  C(13)              0.00000       0.00116       0.00041       0.00039
    21  C(13)              0.00039       0.21701       0.07744       0.07239
    22  C(13)              0.00036       0.20266       0.07231       0.06760
    23  C(13)             -0.00023      -0.13023      -0.04647      -0.04344
    24  C(13)              0.00036       0.20266       0.07231       0.06760
    25  C(13)              0.00039       0.21701       0.07744       0.07239
    26  C(13)              0.00000       0.00116       0.00041       0.00039
    27  C(13)             -0.00263      -1.47828      -0.52749      -0.49310
    28  C(13)              0.00119       0.66979       0.23900       0.22342
    29  C(13)              0.00031       0.17383       0.06203       0.05798
    30  C(13)             -0.00120      -0.67631      -0.24132      -0.22559
    31  C(13)             -0.00304      -1.70638      -0.60888      -0.56919
    32  C(13)              0.00041       0.22988       0.08203       0.07668
    33  C(13)              0.00042       0.23767       0.08481       0.07928
    34  C(13)             -0.00123      -0.69242      -0.24707      -0.23097
    35  C(13)             -0.00263      -1.47828      -0.52749      -0.49310
    36  C(13)              0.00119       0.66979       0.23900       0.22342
    37  C(13)              0.00031       0.17383       0.06203       0.05798
    38  C(13)             -0.00120      -0.67631      -0.24132      -0.22559
    39  C(13)             -0.00304      -1.70638      -0.60888      -0.56919
    40  C(13)              0.00041       0.22988       0.08203       0.07668
    41  C(13)              0.00042       0.23767       0.08481       0.07928
    42  C(13)             -0.00123      -0.69242      -0.24707      -0.23097
    43  H(1)              -0.02967     -66.30100     -23.65785     -22.11563
    44  H(1)               0.00002       0.04497       0.01605       0.01500
    45  H(1)               0.00001       0.01764       0.00629       0.00588
    46  H(1)               0.00001       0.01764       0.00629       0.00588
    47  H(1)               0.00002       0.04497       0.01605       0.01500
    48  H(1)               0.00038       0.84738       0.30237       0.28266
    49  H(1)              -0.00116      -2.59264      -0.92512      -0.86481
    50  H(1)              -0.00116      -2.59264      -0.92512      -0.86481
    51  H(1)               0.00038       0.84738       0.30237       0.28266
    52  H(1)              -0.00000      -0.00916      -0.00327      -0.00306
    53  H(1)              -0.00000      -0.00343      -0.00122      -0.00114
    54  H(1)              -0.00000      -0.00358      -0.00128      -0.00119
    55  H(1)               0.00003       0.06890       0.02458       0.02298
    56  H(1)              -0.00000      -0.00674      -0.00240      -0.00225
    57  H(1)              -0.00000      -0.00974      -0.00348      -0.00325
    58  H(1)               0.00003       0.06131       0.02188       0.02045
    59  H(1)              -0.00000      -0.00983      -0.00351      -0.00328
    60  H(1)              -0.00000      -0.00953      -0.00340      -0.00318
    61  H(1)               0.00003       0.06131       0.02188       0.02045
    62  H(1)              -0.00000      -0.00953      -0.00340      -0.00318
    63  H(1)              -0.00000      -0.00983      -0.00351      -0.00328
    64  H(1)               0.00003       0.06890       0.02458       0.02298
    65  H(1)              -0.00000      -0.00974      -0.00348      -0.00325
    66  H(1)              -0.00000      -0.00674      -0.00240      -0.00225
    67  H(1)              -0.00000      -0.00916      -0.00327      -0.00306
    68  H(1)              -0.00000      -0.00358      -0.00128      -0.00119
    69  H(1)              -0.00000      -0.00343      -0.00122      -0.00114
    70  H(1)               0.00003       0.06085       0.02171       0.02030
    71  H(1)              -0.00002      -0.05381      -0.01920      -0.01795
    72  H(1)               0.00003       0.07737       0.02761       0.02581
    73  H(1)              -0.00005      -0.12274      -0.04380      -0.04094
    74  H(1)              -0.00008      -0.17397      -0.06208      -0.05803
    75  H(1)               0.00002       0.04236       0.01512       0.01413
    76  H(1)               0.00001       0.03135       0.01119       0.01046
    77  H(1)              -0.00014      -0.31295      -0.11167      -0.10439
    78  H(1)               0.00002       0.04257       0.01519       0.01420
    79  H(1)               0.00001       0.02374       0.00847       0.00792
    80  H(1)               0.00001       0.02538       0.00905       0.00846
    81  H(1)               0.00003       0.07492       0.02673       0.02499
    82  H(1)              -0.00001      -0.02091      -0.00746      -0.00697
    83  H(1)              -0.00002      -0.03868      -0.01380      -0.01290
    84  H(1)              -0.00003      -0.06018      -0.02147      -0.02007
    85  H(1)               0.00001       0.02017       0.00720       0.00673
    86  H(1)              -0.00025      -0.54782      -0.19548      -0.18273
    87  H(1)               0.00001       0.02516       0.00898       0.00839
    88  H(1)              -0.00002      -0.05381      -0.01920      -0.01795
    89  H(1)               0.00003       0.06085       0.02171       0.02030
    90  H(1)               0.00003       0.07737       0.02761       0.02581
    91  H(1)              -0.00005      -0.12274      -0.04380      -0.04094
    92  H(1)               0.00002       0.04236       0.01512       0.01413
    93  H(1)              -0.00008      -0.17397      -0.06208      -0.05803
    94  H(1)               0.00002       0.04257       0.01519       0.01420
    95  H(1)              -0.00014      -0.31295      -0.11167      -0.10439
    96  H(1)               0.00001       0.03135       0.01119       0.01046
    97  H(1)               0.00001       0.02538       0.00905       0.00846
    98  H(1)               0.00001       0.02374       0.00847       0.00792
    99  H(1)               0.00003       0.07492       0.02673       0.02499
   100  H(1)              -0.00003      -0.06018      -0.02147      -0.02007
   101  H(1)              -0.00002      -0.03868      -0.01380      -0.01290
   102  H(1)              -0.00001      -0.02091      -0.00746      -0.00697
   103  H(1)               0.00001       0.02516       0.00898       0.00839
   104  H(1)              -0.00025      -0.54782      -0.19548      -0.18273
   105  H(1)               0.00001       0.02017       0.00720       0.00673
 --------------------------------------------------------
       Center         ----  Spin Dipole Couplings  ----
                      3XX-RR        3YY-RR        3ZZ-RR
 --------------------------------------------------------
     1   Atom        0.174732     -3.196593      3.021861
     2   Atom        0.039404     -0.077702      0.038298
     3   Atom        0.039404     -0.077702      0.038298
     4   Atom        0.011849     -0.044223      0.032375
     5   Atom        0.016189     -0.006114     -0.010075
     6   Atom        0.002207     -0.000339     -0.001868
     7   Atom        0.001178      0.001979     -0.003157
     8   Atom        0.000803     -0.004728      0.003925
     9   Atom        0.002638      0.000496     -0.003134
    10   Atom        0.006932     -0.007460      0.000527
    11   Atom        0.006932     -0.007460      0.000527
    12   Atom        0.002638      0.000496     -0.003134
    13   Atom        0.000803     -0.004728      0.003925
    14   Atom        0.001178      0.001979     -0.003157
    15   Atom        0.002207     -0.000339     -0.001868
    16   Atom        0.016189     -0.006114     -0.010075
    17   Atom       -0.009330      0.012457     -0.003127
    18   Atom       -0.009330      0.012457     -0.003127
    19   Atom        0.000543     -0.000046     -0.000497
    20   Atom        0.000117      0.000447     -0.000564
    21   Atom        0.001013     -0.000361     -0.000652
    22   Atom        0.000174     -0.000331      0.000156
    23   Atom        0.000543     -0.000046     -0.000497
    24   Atom        0.000174     -0.000331      0.000156
    25   Atom        0.001013     -0.000361     -0.000652
    26   Atom        0.000117      0.000447     -0.000564
    27   Atom       -0.003642      0.008723     -0.005081
    28   Atom       -0.006335      0.004405      0.001930
    29   Atom        0.003013     -0.000248     -0.002765
    30   Atom       -0.001047      0.001873     -0.000827
    31   Atom       -0.003772      0.009602     -0.005830
    32   Atom       -0.005919      0.005190      0.000729
    33   Atom       -0.000628      0.002451     -0.001824
    34   Atom       -0.001243      0.002010     -0.000766
    35   Atom       -0.003642      0.008723     -0.005081
    36   Atom       -0.006335      0.004405      0.001930
    37   Atom        0.003013     -0.000248     -0.002765
    38   Atom       -0.001047      0.001873     -0.000827
    39   Atom       -0.003772      0.009602     -0.005830
    40   Atom       -0.005919      0.005190      0.000729
    41   Atom       -0.000628      0.002451     -0.001824
    42   Atom       -0.001243      0.002010     -0.000766
    43   Atom        0.151626     -0.090876     -0.060750
    44   Atom       -0.000079      0.001648     -0.001570
    45   Atom        0.001619     -0.000843     -0.000776
    46   Atom        0.001619     -0.000843     -0.000776
    47   Atom       -0.000079      0.001648     -0.001570
    48   Atom       -0.002659      0.006541     -0.003882
    49   Atom       -0.002639      0.005354     -0.002716
    50   Atom       -0.002639      0.005354     -0.002716
    51   Atom       -0.002659      0.006541     -0.003882
    52   Atom        0.000091      0.000266     -0.000357
    53   Atom        0.000132      0.000519     -0.000651
    54   Atom       -0.000122      0.000667     -0.000545
    55   Atom        0.000432     -0.000088     -0.000344
    56   Atom        0.000873     -0.000365     -0.000508
    57   Atom        0.000739     -0.000182     -0.000557
    58   Atom        0.000194     -0.000058     -0.000136
    59   Atom        0.000055     -0.000081      0.000026
    60   Atom        0.000437     -0.000366     -0.000071
    61   Atom        0.000194     -0.000058     -0.000136
    62   Atom        0.000437     -0.000366     -0.000071
    63   Atom        0.000055     -0.000081      0.000026
    64   Atom        0.000432     -0.000088     -0.000344
    65   Atom        0.000739     -0.000182     -0.000557
    66   Atom        0.000873     -0.000365     -0.000508
    67   Atom        0.000091      0.000266     -0.000357
    68   Atom       -0.000122      0.000667     -0.000545
    69   Atom        0.000132      0.000519     -0.000651
    70   Atom       -0.010127     -0.002957      0.013084
    71   Atom       -0.003908      0.002557      0.001351
    72   Atom       -0.002379      0.000198      0.002181
    73   Atom        0.010025     -0.005526     -0.004499
    74   Atom        0.000990     -0.000354     -0.000636
    75   Atom        0.002777      0.000315     -0.003093
    76   Atom       -0.001126      0.002879     -0.001753
    77   Atom       -0.000978      0.001720     -0.000742
    78   Atom       -0.001970      0.003311     -0.001342
    79   Atom       -0.002913      0.003481     -0.000567
    80   Atom       -0.009268     -0.000358      0.009626
    81   Atom       -0.002826      0.001096      0.001730
    82   Atom        0.001644      0.000849     -0.002493
    83   Atom       -0.000723      0.000286      0.000437
    84   Atom        0.003339     -0.003571      0.000232
    85   Atom       -0.001943      0.003537     -0.001594
    86   Atom       -0.001225      0.002078     -0.000853
    87   Atom       -0.001327      0.003068     -0.001740
    88   Atom       -0.003908      0.002557      0.001351
    89   Atom       -0.010127     -0.002957      0.013084
    90   Atom       -0.002379      0.000198      0.002181
    91   Atom        0.010025     -0.005526     -0.004499
    92   Atom        0.002777      0.000315     -0.003093
    93   Atom        0.000990     -0.000354     -0.000636
    94   Atom       -0.001970      0.003311     -0.001342
    95   Atom       -0.000978      0.001720     -0.000742
    96   Atom       -0.001126      0.002879     -0.001753
    97   Atom       -0.009268     -0.000358      0.009626
    98   Atom       -0.002913      0.003481     -0.000567
    99   Atom       -0.002826      0.001096      0.001730
   100   Atom        0.003339     -0.003571      0.000232
   101   Atom       -0.000723      0.000286      0.000437
   102   Atom        0.001644      0.000849     -0.002493
   103   Atom       -0.001327      0.003068     -0.001740
   104   Atom       -0.001225      0.002078     -0.000853
   105   Atom       -0.001943      0.003537     -0.001594
 --------------------------------------------------------
                        XY            XZ            YZ
 --------------------------------------------------------
     1   Atom        0.000000     -0.055421     -0.000000
     2   Atom       -0.019687     -0.003415     -0.008328
     3   Atom        0.019687     -0.003415      0.008328
     4   Atom       -0.000000     -0.016872     -0.000000
     5   Atom        0.010165      0.003121      0.000319
     6   Atom        0.008810     -0.003700      0.002310
     7   Atom        0.003581      0.002286      0.001156
     8   Atom        0.001959     -0.005066      0.000964
     9   Atom        0.001698      0.003698      0.000400
    10   Atom        0.001941     -0.003519      0.001301
    11   Atom       -0.001941     -0.003519     -0.001301
    12   Atom       -0.001698      0.003698     -0.000400
    13   Atom       -0.001959     -0.005066     -0.000964
    14   Atom       -0.003581      0.002286     -0.001156
    15   Atom       -0.008810     -0.003700     -0.002310
    16   Atom       -0.010165      0.003121     -0.000319
    17   Atom       -0.002634      0.001372      0.000603
    18   Atom        0.002634      0.001372     -0.000603
    19   Atom        0.001027      0.000476      0.000430
    20   Atom        0.000908      0.000303      0.000339
    21   Atom        0.000743      0.000203      0.000155
    22   Atom        0.000692      0.000798      0.000518
    23   Atom       -0.001027      0.000476     -0.000430
    24   Atom       -0.000692      0.000798     -0.000518
    25   Atom       -0.000743      0.000203     -0.000155
    26   Atom       -0.000908      0.000303     -0.000339
    27   Atom        0.004694      0.000246      0.004504
    28   Atom        0.002208      0.001746      0.008816
    29   Atom        0.007375      0.004151      0.002889
    30   Atom        0.001538      0.000604      0.001551
    31   Atom        0.002871     -0.000004     -0.003688
    32   Atom       -0.001085      0.000564     -0.008129
    33   Atom        0.006546     -0.004478     -0.005064
    34   Atom        0.000933     -0.000329     -0.001482
    35   Atom       -0.004694      0.000246     -0.004504
    36   Atom       -0.002208      0.001746     -0.008816
    37   Atom       -0.007375      0.004151     -0.002889
    38   Atom       -0.001538      0.000604     -0.001551
    39   Atom       -0.002871     -0.000004      0.003688
    40   Atom        0.001085      0.000564      0.008129
    41   Atom       -0.006546     -0.004478      0.005064
    42   Atom       -0.000933     -0.000329      0.001482
    43   Atom        0.000000     -0.000356      0.000000
    44   Atom        0.002379      0.000354      0.000534
    45   Atom        0.000798      0.001248      0.000339
    46   Atom       -0.000798      0.001248     -0.000339
    47   Atom       -0.002379      0.000354     -0.000534
    48   Atom       -0.007393     -0.002722      0.006579
    49   Atom       -0.002979      0.000022      0.000971
    50   Atom        0.002979      0.000022     -0.000971
    51   Atom        0.007393     -0.002722     -0.006579
    52   Atom        0.000611      0.000215      0.000247
    53   Atom        0.000967      0.000127      0.000131
    54   Atom        0.000898      0.000345      0.000526
    55   Atom        0.000523      0.000223      0.000150
    56   Atom        0.000515      0.000376      0.000144
    57   Atom        0.000796      0.000057      0.000052
    58   Atom        0.000506      0.000431      0.000338
    59   Atom        0.000723      0.000689      0.000710
    60   Atom        0.000538      0.000787      0.000354
    61   Atom       -0.000506      0.000431     -0.000338
    62   Atom       -0.000538      0.000787     -0.000354
    63   Atom       -0.000723      0.000689     -0.000710
    64   Atom       -0.000523      0.000223     -0.000150
    65   Atom       -0.000796      0.000057     -0.000052
    66   Atom       -0.000515      0.000376     -0.000144
    67   Atom       -0.000611      0.000215     -0.000247
    68   Atom       -0.000898      0.000345     -0.000526
    69   Atom       -0.000967      0.000127     -0.000131
    70   Atom        0.001973      0.003419      0.013113
    71   Atom       -0.001087     -0.000803      0.006296
    72   Atom        0.001313      0.001748      0.004054
    73   Atom        0.008434      0.008850      0.003373
    74   Atom        0.003121      0.002702      0.002240
    75   Atom        0.005209      0.001333      0.001055
    76   Atom        0.001815      0.000314      0.000785
    77   Atom        0.001351      0.000581      0.001625
    78   Atom        0.000568      0.000093      0.001542
    79   Atom       -0.002846      0.001652     -0.005305
    80   Atom       -0.002296      0.003214     -0.013650
    81   Atom        0.000079     -0.000201     -0.004324
    82   Atom        0.005103     -0.002202     -0.002103
    83   Atom        0.002636     -0.002518     -0.003155
    84   Atom        0.008813     -0.011169     -0.007142
    85   Atom        0.000173      0.000097     -0.001165
    86   Atom        0.000875     -0.000344     -0.001671
    87   Atom        0.001572     -0.000316     -0.000787
    88   Atom        0.001087     -0.000803     -0.006296
    89   Atom       -0.001973      0.003419     -0.013113
    90   Atom       -0.001313      0.001748     -0.004054
    91   Atom       -0.008434      0.008850     -0.003373
    92   Atom       -0.005209      0.001333     -0.001055
    93   Atom       -0.003121      0.002702     -0.002240
    94   Atom       -0.000568      0.000093     -0.001542
    95   Atom       -0.001351      0.000581     -0.001625
    96   Atom       -0.001815      0.000314     -0.000785
    97   Atom        0.002296      0.003214      0.013650
    98   Atom        0.002846      0.001652      0.005305
    99   Atom       -0.000079     -0.000201      0.004324
   100   Atom       -0.008813     -0.011169      0.007142
   101   Atom       -0.002636     -0.002518      0.003155
   102   Atom       -0.005103     -0.002202      0.002103
   103   Atom       -0.001572     -0.000316      0.000787
   104   Atom       -0.000875     -0.000344      0.001671
   105   Atom       -0.000173      0.000097      0.001165
 --------------------------------------------------------


 ---------------------------------------------------------------------------------
              Anisotropic Spin Dipole Couplings in Principal Axis System
 ---------------------------------------------------------------------------------

       Atom             a.u.   MegaHertz   Gauss  10(-4) cm-1        Axes

              Baa    -3.1966   -55.342   -19.747   -18.460 -0.0000  1.0000  0.0000
     1 Fe(57) Bbb     0.1737     3.006     1.073     1.003  0.9998  0.0000  0.0195
              Bcc     3.0229    52.336    18.675    17.457 -0.0195 -0.0000  0.9998
 
              Baa    -0.0816   -17.633    -6.292    -5.882  0.1622  0.9841  0.0730
     2 P(31)  Bbb     0.0380     8.225     2.935     2.744  0.3876 -0.1316  0.9124
              Bcc     0.0435     9.408     3.357     3.138  0.9074 -0.1197 -0.4027
 
              Baa    -0.0816   -17.633    -6.292    -5.882 -0.1622  0.9841 -0.0730
     3 P(31)  Bbb     0.0380     8.225     2.935     2.744  0.3876  0.1316  0.9124
              Bcc     0.0435     9.408     3.357     3.138  0.9074  0.1197 -0.4027
 
              Baa    -0.0442    -1.706    -0.609    -0.569  0.0000  1.0000  0.0000
     4 N(14)  Bbb     0.0024     0.091     0.033     0.030  0.8717 -0.0000  0.4901
              Bcc     0.0419     1.614     0.576     0.539 -0.4901 -0.0000  0.8717
 
              Baa    -0.0111    -1.483    -0.529    -0.495 -0.2991  0.5659  0.7683
     5 C(13)  Bbb    -0.0094    -1.258    -0.449    -0.419 -0.2184  0.7432 -0.6324
              Bcc     0.0204     2.741     0.978     0.914  0.9289  0.3569  0.0988
 
              Baa    -0.0101    -1.355    -0.484    -0.452 -0.6047  0.6535 -0.4552
     6 C(13)  Bbb     0.0001     0.015     0.005     0.005 -0.2099  0.4206  0.8826
              Bcc     0.0100     1.340     0.478     0.447  0.7683  0.6293 -0.1172
 
              Baa    -0.0042    -0.560    -0.200    -0.187 -0.4413  0.0891  0.8930
     7 C(13)  Bbb    -0.0017    -0.222    -0.079    -0.074 -0.6010  0.7097 -0.3678
              Bcc     0.0058     0.781     0.279     0.261  0.6664  0.6989  0.2596
 
              Baa    -0.0062    -0.828    -0.295    -0.276 -0.4592  0.8325 -0.3100
     8 C(13)  Bbb    -0.0015    -0.203    -0.072    -0.068  0.6561  0.5531  0.5135
              Bcc     0.0077     1.030     0.368     0.344 -0.5989 -0.0324  0.8002
 
              Baa    -0.0050    -0.667    -0.238    -0.222 -0.4495  0.0745  0.8902
     9 C(13)  Bbb    -0.0001    -0.015    -0.005    -0.005 -0.2811  0.9341 -0.2202
              Bcc     0.0051     0.681     0.243     0.227  0.8479  0.3492  0.3989
 
              Baa    -0.0081    -1.088    -0.388    -0.363 -0.1746  0.9607 -0.2159
    10 C(13)  Bbb    -0.0005    -0.065    -0.023    -0.022  0.3556  0.2660  0.8960
              Bcc     0.0086     1.152     0.411     0.384  0.9182  0.0796 -0.3880
 
              Baa    -0.0081    -1.088    -0.388    -0.363  0.1746  0.9607  0.2159
    11 C(13)  Bbb    -0.0005    -0.065    -0.023    -0.022  0.3556 -0.2660  0.8960
              Bcc     0.0086     1.152     0.411     0.384  0.9182 -0.0796 -0.3880
 
              Baa    -0.0050    -0.667    -0.238    -0.222 -0.4495 -0.0745  0.8902
    12 C(13)  Bbb    -0.0001    -0.015    -0.005    -0.005  0.2811  0.9341  0.2202
              Bcc     0.0051     0.681     0.243     0.227  0.8479 -0.3492  0.3989
 
              Baa    -0.0062    -0.828    -0.295    -0.276  0.4592  0.8325  0.3100
    13 C(13)  Bbb    -0.0015    -0.203    -0.072    -0.068  0.6561 -0.5531  0.5135
              Bcc     0.0077     1.030     0.368     0.344 -0.5989  0.0324  0.8002
 
              Baa    -0.0042    -0.560    -0.200    -0.187 -0.4413 -0.0891  0.8930
    14 C(13)  Bbb    -0.0017    -0.222    -0.079    -0.074  0.6010  0.7097  0.3678
              Bcc     0.0058     0.781     0.279     0.261 -0.6664  0.6989 -0.2596
 
              Baa    -0.0101    -1.355    -0.484    -0.452  0.6047  0.6535  0.4552
    15 C(13)  Bbb     0.0001     0.015     0.005     0.005 -0.2099 -0.4206  0.8826
              Bcc     0.0100     1.340     0.478     0.447  0.7683 -0.6293 -0.1172
 
              Baa    -0.0111    -1.483    -0.529    -0.495 -0.2991 -0.5659  0.7683
    16 C(13)  Bbb    -0.0094    -1.258    -0.449    -0.419  0.2184  0.7432  0.6324
              Bcc     0.0204     2.741     0.978     0.914  0.9289 -0.3569  0.0988
 
              Baa    -0.0099    -1.335    -0.476    -0.445  0.9712  0.1198 -0.2061
    17 C(13)  Bbb    -0.0028    -0.381    -0.136    -0.127  0.2079 -0.0028  0.9781
              Bcc     0.0128     1.715     0.612     0.572 -0.1166  0.9928  0.0276
 
              Baa    -0.0099    -1.335    -0.476    -0.445  0.9712 -0.1198 -0.2061
    18 C(13)  Bbb    -0.0028    -0.381    -0.136    -0.127  0.2079  0.0028  0.9781
              Bcc     0.0128     1.715     0.612     0.572  0.1166  0.9928 -0.0276
 
              Baa    -0.0008    -0.113    -0.040    -0.038 -0.4805  0.8068 -0.3438
    19 C(13)  Bbb    -0.0007    -0.091    -0.032    -0.030 -0.4431  0.1150  0.8890
              Bcc     0.0015     0.204     0.073     0.068  0.7568  0.5796  0.3023
 
              Baa    -0.0007    -0.091    -0.033    -0.030 -0.4178  0.0642  0.9063
    20 C(13)  Bbb    -0.0006    -0.085    -0.030    -0.028 -0.6602  0.6638 -0.3514
              Bcc     0.0013     0.176     0.063     0.059  0.6241  0.7451  0.2350
 
              Baa    -0.0007    -0.100    -0.036    -0.033 -0.2126  0.6916 -0.6902
    21 C(13)  Bbb    -0.0006    -0.084    -0.030    -0.028 -0.3609  0.6008  0.7132
              Bcc     0.0014     0.184     0.066     0.061  0.9080  0.4008  0.1219
 
              Baa    -0.0008    -0.110    -0.039    -0.037 -0.6183  0.7806  0.0916
    22 C(13)  Bbb    -0.0006    -0.077    -0.027    -0.026 -0.4354 -0.4373  0.7869
              Bcc     0.0014     0.187     0.067     0.062  0.6543  0.4467  0.6103
 
              Baa    -0.0008    -0.113    -0.040    -0.038  0.4805  0.8068  0.3438
    23 C(13)  Bbb    -0.0007    -0.091    -0.032    -0.030 -0.4431 -0.1150  0.8890
              Bcc     0.0015     0.204     0.073     0.068  0.7568 -0.5796  0.3023
 
              Baa    -0.0008    -0.110    -0.039    -0.037  0.6183  0.7806 -0.0916
    24 C(13)  Bbb    -0.0006    -0.077    -0.027    -0.026 -0.4354  0.4373  0.7869
              Bcc     0.0014     0.187     0.067     0.062  0.6543 -0.4467  0.6103
 
              Baa    -0.0007    -0.100    -0.036    -0.033  0.2126  0.6916  0.6902
    25 C(13)  Bbb    -0.0006    -0.084    -0.030    -0.028 -0.3609 -0.6008  0.7132
              Bcc     0.0014     0.184     0.066     0.061  0.9080 -0.4008  0.1219
 
              Baa    -0.0007    -0.091    -0.033    -0.030 -0.4178 -0.0642  0.9063
    26 C(13)  Bbb    -0.0006    -0.085    -0.030    -0.028  0.6602  0.6638  0.3514
              Bcc     0.0013     0.176     0.063     0.059 -0.6241  0.7451 -0.2350
 
              Baa    -0.0070    -0.938    -0.335    -0.313  0.4569 -0.3685  0.8096
    27 C(13)  Bbb    -0.0045    -0.598    -0.214    -0.200  0.8406 -0.1187 -0.5285
              Bcc     0.0115     1.537     0.548     0.513  0.2909  0.9220  0.2555
 
              Baa    -0.0068    -0.909    -0.324    -0.303  0.9814 -0.1922 -0.0022
    28 C(13)  Bbb    -0.0057    -0.767    -0.274    -0.256 -0.1229 -0.6364  0.7615
              Bcc     0.0125     1.676     0.598     0.559  0.1478  0.7471  0.6481
 
              Baa    -0.0062    -0.837    -0.299    -0.279 -0.6626  0.7246  0.1894
    29 C(13)  Bbb    -0.0046    -0.614    -0.219    -0.205 -0.1424 -0.3702  0.9180
              Bcc     0.0108     1.451     0.518     0.484  0.7353  0.5813  0.3485
 
              Baa    -0.0017    -0.231    -0.082    -0.077  0.8555 -0.4647  0.2285
    30 C(13)  Bbb    -0.0015    -0.201    -0.072    -0.067 -0.3713 -0.2430  0.8962
              Bcc     0.0032     0.432     0.154     0.144  0.3609  0.8515  0.3804
 
              Baa    -0.0068    -0.915    -0.327    -0.305 -0.2363  0.2521  0.9384
    31 C(13)  Bbb    -0.0042    -0.557    -0.199    -0.186  0.9535 -0.1256  0.2738
              Bcc     0.0110     1.472     0.525     0.491  0.1869  0.9595 -0.2107
 
              Baa    -0.0061    -0.815    -0.291    -0.272  0.9431  0.2494  0.2197
    32 C(13)  Bbb    -0.0054    -0.724    -0.258    -0.242 -0.3251  0.5547  0.7659
              Bcc     0.0115     1.540     0.549     0.514 -0.0691  0.7938 -0.6043
 
              Baa    -0.0060    -0.802    -0.286    -0.268  0.8240 -0.3971  0.4041
    33 C(13)  Bbb    -0.0052    -0.694    -0.248    -0.232 -0.0951  0.6062  0.7896
              Bcc     0.0112     1.496     0.534     0.499  0.5585  0.6891 -0.4617
 
              Baa    -0.0015    -0.204    -0.073    -0.068  0.8318 -0.3870 -0.3979
    34 C(13)  Bbb    -0.0014    -0.184    -0.066    -0.061  0.5040  0.2265  0.8335
              Bcc     0.0029     0.388     0.138     0.129  0.2324  0.8938 -0.3835
 
              Baa    -0.0070    -0.938    -0.335    -0.313  0.4569  0.3685  0.8096
    35 C(13)  Bbb    -0.0045    -0.598    -0.214    -0.200  0.8406  0.1187 -0.5285
              Bcc     0.0115     1.537     0.548     0.513 -0.2909  0.9220 -0.2555
 
              Baa    -0.0068    -0.909    -0.324    -0.303  0.9814  0.1922 -0.0022
    36 C(13)  Bbb    -0.0057    -0.767    -0.274    -0.256 -0.1229  0.6364  0.7615
              Bcc     0.0125     1.676     0.598     0.559 -0.1478  0.7471 -0.6481
 
              Baa    -0.0062    -0.837    -0.299    -0.279  0.6626  0.7246 -0.1894
    37 C(13)  Bbb    -0.0046    -0.614    -0.219    -0.205 -0.1424  0.3702  0.9180
              Bcc     0.0108     1.451     0.518     0.484  0.7353 -0.5813  0.3485
 
              Baa    -0.0017    -0.231    -0.082    -0.077  0.8555  0.4647  0.2285
    38 C(13)  Bbb    -0.0015    -0.201    -0.072    -0.067 -0.3713  0.2430  0.8962
              Bcc     0.0032     0.432     0.154     0.144 -0.3609  0.8515 -0.3804
 
              Baa    -0.0068    -0.915    -0.327    -0.305 -0.2363 -0.2521  0.9384
    39 C(13)  Bbb    -0.0042    -0.557    -0.199    -0.186  0.9535  0.1256  0.2738
              Bcc     0.0110     1.472     0.525     0.491 -0.1869  0.9595  0.2107
 
              Baa    -0.0061    -0.815    -0.291    -0.272  0.9431 -0.2494  0.2197
    40 C(13)  Bbb    -0.0054    -0.724    -0.258    -0.242 -0.3251 -0.5547  0.7659
              Bcc     0.0115     1.540     0.549     0.514  0.0691  0.7938  0.6043
 
              Baa    -0.0060    -0.802    -0.286    -0.268  0.8240  0.3971  0.4041
    41 C(13)  Bbb    -0.0052    -0.694    -0.248    -0.232 -0.0951 -0.6062  0.7896
              Bcc     0.0112     1.496     0.534     0.499 -0.5585  0.6891  0.4617
 
              Baa    -0.0015    -0.204    -0.073    -0.068  0.8318  0.3870 -0.3979
    42 C(13)  Bbb    -0.0014    -0.184    -0.066    -0.061  0.5040 -0.2265  0.8335
              Bcc     0.0029     0.388     0.138     0.129 -0.2324  0.8938  0.3835
 
              Baa    -0.0909   -48.487   -17.301   -16.174 -0.0000  1.0000 -0.0000
    43 H(1)   Bbb    -0.0608   -32.414   -11.566   -10.812  0.0017  0.0000  1.0000
              Bcc     0.1516    80.901    28.867    26.986  1.0000  0.0000 -0.0017
 
              Baa    -0.0017    -0.933    -0.333    -0.311  0.7953 -0.5830  0.1659
    44 H(1)   Bbb    -0.0016    -0.880    -0.314    -0.294 -0.2093 -0.0073  0.9778
              Bcc     0.0034     1.813     0.647     0.605  0.5689  0.8124  0.1279
 
              Baa    -0.0013    -0.698    -0.249    -0.233 -0.3932  0.0048  0.9194
    45 H(1)   Bbb    -0.0011    -0.574    -0.205    -0.192 -0.2368  0.9657 -0.1064
              Bcc     0.0024     1.272     0.454     0.424  0.8884  0.2596  0.3786
 
              Baa    -0.0013    -0.698    -0.249    -0.233 -0.3932 -0.0048  0.9194
    46 H(1)   Bbb    -0.0011    -0.574    -0.205    -0.192  0.2368  0.9657  0.1064
              Bcc     0.0024     1.272     0.454     0.424  0.8884 -0.2596  0.3786
 
              Baa    -0.0017    -0.933    -0.333    -0.311  0.7953  0.5830  0.1659
    47 H(1)   Bbb    -0.0016    -0.880    -0.314    -0.294 -0.2093  0.0073  0.9778
              Bcc     0.0034     1.813     0.647     0.605 -0.5689  0.8124 -0.1279
 
              Baa    -0.0075    -4.012    -1.432    -1.338 -0.4972 -0.5683  0.6556
    48 H(1)   Bbb    -0.0060    -3.206    -1.144    -1.069  0.7498  0.0988  0.6542
              Bcc     0.0135     7.218     2.575     2.408 -0.4365  0.8169  0.3770
 
              Baa    -0.0037    -1.995    -0.712    -0.666  0.8870  0.3255 -0.3275
    49 H(1)   Bbb    -0.0027    -1.437    -0.513    -0.479  0.3420  0.0132  0.9396
              Bcc     0.0064     3.433     1.225     1.145 -0.3102  0.9454  0.0996
 
              Baa    -0.0037    -1.995    -0.712    -0.666  0.8870 -0.3255 -0.3275
    50 H(1)   Bbb    -0.0027    -1.437    -0.513    -0.479  0.3420 -0.0132  0.9396
              Bcc     0.0064     3.433     1.225     1.145  0.3102  0.9454 -0.0996
 
              Baa    -0.0075    -4.012    -1.432    -1.338 -0.4972  0.5683  0.6556
    51 H(1)   Bbb    -0.0060    -3.206    -1.144    -1.069  0.7498 -0.0988  0.6542
              Bcc     0.0135     7.218     2.575     2.408  0.4365  0.8169 -0.3770
 
              Baa    -0.0004    -0.237    -0.084    -0.079 -0.2613 -0.1095  0.9590
    52 H(1)   Bbb    -0.0004    -0.234    -0.084    -0.078  0.7285 -0.6742  0.1215
              Bcc     0.0009     0.471     0.168     0.157  0.6333  0.7304  0.2559
 
              Baa    -0.0007    -0.362    -0.129    -0.121 -0.5275  0.3403  0.7784
    53 H(1)   Bbb    -0.0006    -0.346    -0.124    -0.116  0.5680 -0.5401  0.6210
              Bcc     0.0013     0.709     0.253     0.236  0.6318  0.7697  0.0916
 
              Baa    -0.0007    -0.397    -0.142    -0.132 -0.2011 -0.2272  0.9529
    54 H(1)   Bbb    -0.0007    -0.378    -0.135    -0.126  0.8291 -0.5575  0.0421
              Bcc     0.0015     0.775     0.276     0.258  0.5217  0.7985  0.3005
 
              Baa    -0.0004    -0.224    -0.080    -0.075 -0.3118  0.7541 -0.5781
    55 H(1)   Bbb    -0.0004    -0.213    -0.076    -0.071 -0.4675  0.4079  0.7843
              Bcc     0.0008     0.437     0.156     0.146  0.8272  0.5147  0.2253
 
              Baa    -0.0006    -0.324    -0.115    -0.108 -0.1735 -0.2056  0.9631
    56 H(1)   Bbb    -0.0006    -0.294    -0.105    -0.098 -0.3679  0.9207  0.1302
              Bcc     0.0012     0.617     0.220     0.206  0.9136  0.3317  0.2353
 
              Baa    -0.0006    -0.344    -0.123    -0.115 -0.4841  0.8545 -0.1884
    57 H(1)   Bbb    -0.0006    -0.297    -0.106    -0.099 -0.1307  0.1423  0.9812
              Bcc     0.0012     0.641     0.229     0.214  0.8652  0.4996  0.0428
 
              Baa    -0.0005    -0.242    -0.086    -0.081 -0.5973  0.8008 -0.0431
    58 H(1)   Bbb    -0.0004    -0.230    -0.082    -0.077 -0.4023 -0.2527  0.8799
              Bcc     0.0009     0.471     0.168     0.157  0.6938  0.5430  0.4731
 
              Baa    -0.0008    -0.409    -0.146    -0.137 -0.3911  0.8280 -0.4017
    59 H(1)   Bbb    -0.0006    -0.346    -0.124    -0.116 -0.7051  0.0110  0.7090
              Bcc     0.0014     0.756     0.270     0.252  0.5915  0.5606  0.5796
 
              Baa    -0.0007    -0.353    -0.126    -0.118  0.6509 -0.5157 -0.5572
    60 H(1)   Bbb    -0.0006    -0.321    -0.115    -0.107  0.0752  0.7741 -0.6286
              Bcc     0.0013     0.674     0.241     0.225  0.7555  0.3672  0.5426
 
              Baa    -0.0005    -0.242    -0.086    -0.081  0.5973  0.8008  0.0431
    61 H(1)   Bbb    -0.0004    -0.230    -0.082    -0.077 -0.4023  0.2527  0.8799
              Bcc     0.0009     0.471     0.168     0.157  0.6938 -0.5430  0.4731
 
              Baa    -0.0007    -0.353    -0.126    -0.118  0.6509  0.5157 -0.5572
    62 H(1)   Bbb    -0.0006    -0.321    -0.115    -0.107 -0.0752  0.7741  0.6286
              Bcc     0.0013     0.674     0.241     0.225  0.7555 -0.3672  0.5426
 
              Baa    -0.0008    -0.409    -0.146    -0.137  0.3911  0.8280  0.4017
    63 H(1)   Bbb    -0.0006    -0.346    -0.124    -0.116 -0.7051 -0.0110  0.7090
              Bcc     0.0014     0.756     0.270     0.252  0.5915 -0.5606  0.5796
 
              Baa    -0.0004    -0.224    -0.080    -0.075  0.3118  0.7541  0.5781
    64 H(1)   Bbb    -0.0004    -0.213    -0.076    -0.071 -0.4675 -0.4079  0.7843
              Bcc     0.0008     0.437     0.156     0.146  0.8272 -0.5147  0.2253
 
              Baa    -0.0006    -0.344    -0.123    -0.115  0.4841  0.8545  0.1884
    65 H(1)   Bbb    -0.0006    -0.297    -0.106    -0.099 -0.1307 -0.1423  0.9812
              Bcc     0.0012     0.641     0.229     0.214  0.8652 -0.4996  0.0428
 
              Baa    -0.0006    -0.324    -0.115    -0.108 -0.1735  0.2056  0.9631
    66 H(1)   Bbb    -0.0006    -0.294    -0.105    -0.098  0.3679  0.9207 -0.1302
              Bcc     0.0012     0.617     0.220     0.206  0.9136 -0.3317  0.2353
 
              Baa    -0.0004    -0.237    -0.084    -0.079 -0.2613  0.1095  0.9590
    67 H(1)   Bbb    -0.0004    -0.234    -0.084    -0.078  0.7285  0.6742  0.1215
              Bcc     0.0009     0.471     0.168     0.157 -0.6333  0.7304 -0.2559
 
              Baa    -0.0007    -0.397    -0.142    -0.132 -0.2011  0.2272  0.9529
    68 H(1)   Bbb    -0.0007    -0.378    -0.135    -0.126  0.8291  0.5575  0.0421
              Bcc     0.0015     0.775     0.276     0.258 -0.5217  0.7985 -0.3005
 
              Baa    -0.0007    -0.362    -0.129    -0.121 -0.5275 -0.3403  0.7784
    69 H(1)   Bbb    -0.0006    -0.346    -0.124    -0.116  0.5680  0.5401  0.6210
              Bcc     0.0013     0.709     0.253     0.236 -0.6318  0.7697 -0.0916
 
              Baa    -0.0106    -5.675    -2.025    -1.893  0.9814 -0.1882 -0.0374
    70 H(1)   Bbb    -0.0103    -5.496    -1.961    -1.833  0.1447  0.8539 -0.5000
              Bcc     0.0209    11.171     3.986     3.726  0.1261  0.4853  0.8652
 
              Baa    -0.0044    -2.359    -0.842    -0.787 -0.3455 -0.6577  0.6694
    71 H(1)   Bbb    -0.0040    -2.136    -0.762    -0.713  0.9321 -0.1582  0.3257
              Bcc     0.0084     4.495     1.604     1.500 -0.1083  0.7365  0.6677
 
              Baa    -0.0030    -1.609    -0.574    -0.537 -0.5646 -0.5479  0.6173
    72 H(1)   Bbb    -0.0029    -1.559    -0.556    -0.520  0.7852 -0.5869  0.1972
              Bcc     0.0059     3.168     1.130     1.057  0.2542  0.5961  0.7616
 
              Baa    -0.0094    -5.028    -1.794    -1.677 -0.5108  0.7636  0.3949
    73 H(1)   Bbb    -0.0083    -4.440    -1.584    -1.481 -0.1555 -0.5339  0.8311
              Bcc     0.0177     9.468     3.378     3.158  0.8455  0.3632  0.3914
 
              Baa    -0.0029    -1.537    -0.548    -0.513 -0.5601  0.8164 -0.1405
    74 H(1)   Bbb    -0.0026    -1.405    -0.501    -0.469 -0.4816 -0.1830  0.8571
              Bcc     0.0055     2.942     1.050     0.981  0.6740  0.5477  0.4957
 
              Baa    -0.0038    -2.031    -0.725    -0.677 -0.6205  0.7842  0.0000
    75 H(1)   Bbb    -0.0034    -1.800    -0.642    -0.600 -0.1280 -0.1013  0.9866
              Bcc     0.0072     3.831     1.367     1.278  0.7737  0.6122  0.1632
 
              Baa    -0.0019    -1.006    -0.359    -0.336 -0.2124 -0.0795  0.9739
    76 H(1)   Bbb    -0.0018    -0.973    -0.347    -0.325  0.9100 -0.3792  0.1675
              Bcc     0.0037     1.979     0.706     0.660  0.3560  0.9219  0.1529
 
              Baa    -0.0016    -0.859    -0.306    -0.286  0.5810 -0.5351  0.6134
    77 H(1)   Bbb    -0.0015    -0.775    -0.276    -0.258  0.7388  0.0304 -0.6733
              Bcc     0.0031     1.633     0.583     0.545  0.3416  0.8443  0.4129
 
              Baa    -0.0020    -1.093    -0.390    -0.365  0.9516 -0.1737  0.2535
    78 H(1)   Bbb    -0.0018    -0.952    -0.340    -0.317 -0.2913 -0.2473  0.9241
              Bcc     0.0038     2.045     0.730     0.682  0.0978  0.9532  0.2859
 
              Baa    -0.0044    -2.321    -0.828    -0.774  0.4488  0.6073  0.6556
    79 H(1)   Bbb    -0.0038    -2.007    -0.716    -0.669  0.8468 -0.0547 -0.5290
              Bcc     0.0081     4.328     1.544     1.444 -0.2854  0.7926 -0.5388
 
              Baa    -0.0099    -5.290    -1.888    -1.765  0.3431  0.7956  0.4993
    80 H(1)   Bbb    -0.0098    -5.224    -1.864    -1.743  0.9295 -0.2112 -0.3023
              Bcc     0.0197    10.514     3.752     3.507  0.1350 -0.5678  0.8120
 
              Baa    -0.0030    -1.584    -0.565    -0.528  0.4982  0.6272  0.5986
    81 H(1)   Bbb    -0.0028    -1.486    -0.530    -0.496  0.8667 -0.3789 -0.3244
              Bcc     0.0058     3.069     1.095     1.024 -0.0234 -0.6804  0.7324
 
              Baa    -0.0039    -2.069    -0.738    -0.690 -0.6537  0.7502  0.0995
    82 H(1)   Bbb    -0.0034    -1.832    -0.654    -0.611  0.2871  0.1242  0.9498
              Bcc     0.0073     3.901     1.392     1.301  0.7002  0.6495 -0.2966
 
              Baa    -0.0029    -1.557    -0.555    -0.519 -0.6471  0.7343  0.2049
    83 H(1)   Bbb    -0.0027    -1.438    -0.513    -0.480  0.5768  0.2958  0.7615
              Bcc     0.0056     2.995     1.069     0.999 -0.4985 -0.6110  0.6150
 
              Baa    -0.0098    -5.214    -1.860    -1.739  0.7239 -0.5515  0.4145
    84 H(1)   Bbb    -0.0090    -4.821    -1.720    -1.608  0.1330  0.7011  0.7005
              Bcc     0.0188    10.035     3.581     3.347  0.6770  0.4520 -0.5809
 
              Baa    -0.0020    -1.087    -0.388    -0.363  0.8236 -0.1404 -0.5496
    85 H(1)   Bbb    -0.0018    -0.937    -0.334    -0.312  0.5666  0.1594  0.8084
              Bcc     0.0038     2.024     0.722     0.675  0.0258  0.9772 -0.2108
 
              Baa    -0.0016    -0.865    -0.309    -0.289 -0.2336  0.4456  0.8642
    86 H(1)   Bbb    -0.0014    -0.758    -0.270    -0.253  0.9483 -0.0920  0.3038
              Bcc     0.0030     1.623     0.579     0.541  0.2149  0.8905 -0.4010
 
              Baa    -0.0019    -1.022    -0.365    -0.341  0.5942 -0.0609  0.8020
    87 H(1)   Bbb    -0.0018    -0.954    -0.340    -0.318  0.7449 -0.3346 -0.5772
              Bcc     0.0037     1.976     0.705     0.659  0.3035  0.9404 -0.1535
 
              Baa    -0.0044    -2.359    -0.842    -0.787 -0.3455  0.6577  0.6694
    88 H(1)   Bbb    -0.0040    -2.136    -0.762    -0.713  0.9321  0.1582  0.3257
              Bcc     0.0084     4.495     1.604     1.500  0.1083  0.7365 -0.6677
 
              Baa    -0.0106    -5.675    -2.025    -1.893  0.9814  0.1882 -0.0374
    89 H(1)   Bbb    -0.0103    -5.496    -1.961    -1.833 -0.1447  0.8539  0.5000
              Bcc     0.0209    11.171     3.986     3.726  0.1261 -0.4853  0.8652
 
              Baa    -0.0030    -1.609    -0.574    -0.537 -0.5646  0.5479  0.6173
    90 H(1)   Bbb    -0.0029    -1.559    -0.556    -0.520  0.7852  0.5869  0.1972
              Bcc     0.0059     3.168     1.130     1.057  0.2542 -0.5961  0.7616
 
              Baa    -0.0094    -5.028    -1.794    -1.677  0.5108  0.7636 -0.3949
    91 H(1)   Bbb    -0.0083    -4.440    -1.584    -1.481 -0.1555  0.5339  0.8311
              Bcc     0.0177     9.468     3.378     3.158  0.8455 -0.3632  0.3914
 
              Baa    -0.0038    -2.031    -0.725    -0.677  0.6205  0.7842 -0.0000
    92 H(1)   Bbb    -0.0034    -1.800    -0.642    -0.600 -0.1280  0.1013  0.9866
              Bcc     0.0072     3.831     1.367     1.278  0.7737 -0.6122  0.1632
 
              Baa    -0.0029    -1.537    -0.548    -0.513  0.5601  0.8164  0.1405
    93 H(1)   Bbb    -0.0026    -1.405    -0.501    -0.469 -0.4816  0.1830  0.8571
              Bcc     0.0055     2.942     1.050     0.981  0.6740 -0.5477  0.4957
 
              Baa    -0.0020    -1.093    -0.390    -0.365  0.9516  0.1737  0.2535
    94 H(1)   Bbb    -0.0018    -0.952    -0.340    -0.317 -0.2913  0.2473  0.9241
              Bcc     0.0038     2.045     0.730     0.682 -0.0978  0.9532 -0.2859
 
              Baa    -0.0016    -0.859    -0.306    -0.286  0.5810  0.5351  0.6134
    95 H(1)   Bbb    -0.0015    -0.775    -0.276    -0.258  0.7388 -0.0304 -0.6733
              Bcc     0.0031     1.633     0.583     0.545 -0.3416  0.8443 -0.4129
 
              Baa    -0.0019    -1.006    -0.359    -0.336 -0.2124  0.0795  0.9739
    96 H(1)   Bbb    -0.0018    -0.973    -0.347    -0.325  0.9100  0.3792  0.1675
              Bcc     0.0037     1.979     0.706     0.660 -0.3560  0.9219 -0.1529
 
              Baa    -0.0099    -5.290    -1.888    -1.765 -0.3431  0.7956 -0.4993
    97 H(1)   Bbb    -0.0098    -5.224    -1.864    -1.743  0.9295  0.2112 -0.3023
              Bcc     0.0197    10.514     3.752     3.507  0.1350  0.5678  0.8120
 
              Baa    -0.0044    -2.321    -0.828    -0.774  0.4488 -0.6073  0.6556
    98 H(1)   Bbb    -0.0038    -2.007    -0.716    -0.669  0.8468  0.0547 -0.5290
              Bcc     0.0081     4.328     1.544     1.444  0.2854  0.7926  0.5388
 
              Baa    -0.0030    -1.584    -0.565    -0.528 -0.4982  0.6272 -0.5986
    99 H(1)   Bbb    -0.0028    -1.486    -0.530    -0.496  0.8667  0.3789 -0.3244
              Bcc     0.0058     3.069     1.095     1.024 -0.0234  0.6804  0.7324
 
              Baa    -0.0098    -5.214    -1.860    -1.739  0.7239  0.5515  0.4145
   100 H(1)   Bbb    -0.0090    -4.821    -1.720    -1.608 -0.1330  0.7011 -0.7005
              Bcc     0.0188    10.035     3.581     3.347  0.6770 -0.4520 -0.5809
 
              Baa    -0.0029    -1.557    -0.555    -0.519  0.6471  0.7343 -0.2049
   101 H(1)   Bbb    -0.0027    -1.438    -0.513    -0.480  0.5768 -0.2958  0.7615
              Bcc     0.0056     2.995     1.069     0.999 -0.4985  0.6110  0.6150
 
              Baa    -0.0039    -2.069    -0.738    -0.690  0.6537  0.7502 -0.0995
   102 H(1)   Bbb    -0.0034    -1.832    -0.654    -0.611  0.2871 -0.1242  0.9498
              Bcc     0.0073     3.901     1.392     1.301  0.7002 -0.6495 -0.2966
 
              Baa    -0.0019    -1.022    -0.365    -0.341  0.5942  0.0609  0.8020
   103 H(1)   Bbb    -0.0018    -0.954    -0.340    -0.318  0.7449  0.3346 -0.5772
              Bcc     0.0037     1.976     0.705     0.659 -0.3035  0.9404  0.1535
 
              Baa    -0.0016    -0.865    -0.309    -0.289 -0.2336 -0.4456  0.8642
   104 H(1)   Bbb    -0.0014    -0.758    -0.270    -0.253  0.9483  0.0920  0.3038
              Bcc     0.0030     1.623     0.579     0.541 -0.2149  0.8905  0.4010
 
              Baa    -0.0020    -1.087    -0.388    -0.363  0.8236  0.1404 -0.5496
   105 H(1)   Bbb    -0.0018    -0.937    -0.334    -0.312  0.5666 -0.1594  0.8084
              Bcc     0.0038     2.024     0.722     0.675 -0.0258  0.9772  0.2108
 

 ---------------------------------------------------------------------------------

 No NMR shielding tensors so no spin-rotation constants.
 Leave Link  601 at Mon Jul 22 20:58:15 2019, MaxMem=  2147483648 cpu:              65.9 elap:               4.7
 (Enter /apps/gaussian/16/A.03/g16/l602.exe)

 **********************************************************************

            Electrostatic Properties Using The SCF Density

 **********************************************************************


 Warning!  Using spin rather than total density!

 --- Only the electronic contributions will be computed ---
       Atomic Center    1 is at   0.000000  0.000000  0.000000
       Atomic Center    2 is at   0.215450  2.275540  0.087410
       Atomic Center    3 is at   0.215450 -2.275540  0.087410
       Atomic Center    4 is at  -2.019280  0.000000 -0.230980
       Atomic Center    5 is at  -2.775440 -1.108780 -0.635270
       Atomic Center    6 is at  -2.564950 -2.485240 -0.410420
       Atomic Center    7 is at  -3.480900 -3.388230 -0.951390
       Atomic Center    8 is at  -4.615260 -3.013630 -1.698400
       Atomic Center    9 is at  -4.833920 -1.651010 -1.879900
       Atomic Center   10 is at  -3.938640 -0.718600 -1.352370
       Atomic Center   11 is at  -3.938640  0.718600 -1.352370
       Atomic Center   12 is at  -4.833920  1.651010 -1.879900
       Atomic Center   13 is at  -4.615260  3.013630 -1.698400
       Atomic Center   14 is at  -3.480900  3.388230 -0.951390
       Atomic Center   15 is at  -2.564950  2.485240 -0.410420
       Atomic Center   16 is at  -2.775440  1.108780 -0.635270
       Atomic Center   17 is at  -1.450330  3.014260  0.453340
       Atomic Center   18 is at  -1.450330 -3.014260  0.453340
       Atomic Center   19 is at  -5.576500 -4.071120 -2.273130
       Atomic Center   20 is at  -5.109920 -5.497900 -1.920300
       Atomic Center   21 is at  -6.994170 -3.859350 -1.692920
       Atomic Center   22 is at  -5.653100 -3.964690 -3.809830
       Atomic Center   23 is at  -5.576500  4.071120 -2.273130
       Atomic Center   24 is at  -5.653100  3.964690 -3.809830
       Atomic Center   25 is at  -6.994170  3.859350 -1.692920
       Atomic Center   26 is at  -5.109920  5.497900 -1.920300
       Atomic Center   27 is at   1.256940  2.902660  1.576200
       Atomic Center   28 is at   0.517420  2.432180  2.845680
       Atomic Center   29 is at   2.655970  2.262030  1.585820
       Atomic Center   30 is at   1.397870  4.434370  1.634820
       Atomic Center   31 is at   0.790720  3.072970 -1.558370
       Atomic Center   32 is at  -0.281860  2.722380 -2.608890
       Atomic Center   33 is at   2.120100  2.452460 -2.021150
       Atomic Center   34 is at   0.929300  4.603390 -1.488250
       Atomic Center   35 is at   1.256940 -2.902660  1.576200
       Atomic Center   36 is at   0.517420 -2.432180  2.845680
       Atomic Center   37 is at   2.655970 -2.262030  1.585820
       Atomic Center   38 is at   1.397870 -4.434370  1.634820
       Atomic Center   39 is at   0.790720 -3.072970 -1.558370
       Atomic Center   40 is at  -0.281860 -2.722380 -2.608890
       Atomic Center   41 is at   2.120100 -2.452460 -2.021150
       Atomic Center   42 is at   0.929300 -4.603390 -1.488250
       Atomic Center   43 is at   1.570260  0.000000  0.000000
       Atomic Center   44 is at  -3.303180 -4.440770 -0.761600
       Atomic Center   45 is at  -5.701120 -1.297060 -2.424970
       Atomic Center   46 is at  -5.701120  1.297060 -2.424970
       Atomic Center   47 is at  -3.303180  4.440770 -0.761600
       Atomic Center   48 is at  -1.643640  2.730150  1.491550
       Atomic Center   49 is at  -1.433080  4.104480  0.418300
       Atomic Center   50 is at  -1.433080 -4.104480  0.418300
       Atomic Center   51 is at  -1.643640 -2.730150  1.491550
       Atomic Center   52 is at  -5.801160 -6.233590 -2.339910
       Atomic Center   53 is at  -5.073340 -5.656280 -0.840000
       Atomic Center   54 is at  -4.116400 -5.702340 -2.327270
       Atomic Center   55 is at  -7.689190 -4.602720 -2.096880
       Atomic Center   56 is at  -7.378870 -2.867250 -1.941320
       Atomic Center   57 is at  -6.995140 -3.953270 -0.603980
       Atomic Center   58 is at  -6.340020 -4.717850 -4.205330
       Atomic Center   59 is at  -4.674440 -4.129730 -4.268070
       Atomic Center   60 is at  -6.014230 -2.984680 -4.128490
       Atomic Center   61 is at  -6.340020  4.717850 -4.205330
       Atomic Center   62 is at  -6.014230  2.984680 -4.128490
       Atomic Center   63 is at  -4.674440  4.129730 -4.268070
       Atomic Center   64 is at  -7.689190  4.602720 -2.096880
       Atomic Center   65 is at  -6.995140  3.953270 -0.603980
       Atomic Center   66 is at  -7.378870  2.867250 -1.941320
       Atomic Center   67 is at  -5.801160  6.233590 -2.339910
       Atomic Center   68 is at  -4.116400  5.702340 -2.327270
       Atomic Center   69 is at  -5.073340  5.656280 -0.840000
       Atomic Center   70 is at   0.382210  1.348910  2.858780
       Atomic Center   71 is at  -0.457400  2.899430  2.958120
       Atomic Center   72 is at   1.108600  2.699660  3.721650
       Atomic Center   73 is at   2.603660  1.176630  1.511120
       Atomic Center   74 is at   3.151750  2.516710  2.524810
       Atomic Center   75 is at   3.285730  2.625490  0.778260
       Atomic Center   76 is at   1.961690  4.834610  0.791320
       Atomic Center   77 is at   1.940050  4.707240  2.546170
       Atomic Center   78 is at   0.431710  4.940210  1.671270
       Atomic Center   79 is at  -1.245760  3.168410 -2.381850
       Atomic Center   80 is at  -0.421620  1.642350 -2.703110
       Atomic Center   81 is at   0.043220  3.099310 -3.580820
       Atomic Center   82 is at   2.958640  2.742000 -1.393440
       Atomic Center   83 is at   2.334090  2.802350 -3.033600
       Atomic Center   84 is at   2.072930  1.362540 -2.043840
       Atomic Center   85 is at  -0.008160  5.086300 -1.206620
       Atomic Center   86 is at   1.204750  4.982640 -2.478500
       Atomic Center   87 is at   1.706280  4.923030 -0.791880
       Atomic Center   88 is at  -0.457400 -2.899430  2.958120
       Atomic Center   89 is at   0.382210 -1.348910  2.858780
       Atomic Center   90 is at   1.108600 -2.699660  3.721650
       Atomic Center   91 is at   2.603660 -1.176630  1.511120
       Atomic Center   92 is at   3.285730 -2.625490  0.778260
       Atomic Center   93 is at   3.151750 -2.516710  2.524810
       Atomic Center   94 is at   0.431710 -4.940210  1.671270
       Atomic Center   95 is at   1.940050 -4.707240  2.546170
       Atomic Center   96 is at   1.961690 -4.834610  0.791320
       Atomic Center   97 is at  -0.421620 -1.642350 -2.703110
       Atomic Center   98 is at  -1.245760 -3.168410 -2.381850
       Atomic Center   99 is at   0.043220 -3.099310 -3.580820
       Atomic Center  100 is at   2.072930 -1.362540 -2.043840
       Atomic Center  101 is at   2.334090 -2.802350 -3.033600
       Atomic Center  102 is at   2.958640 -2.742000 -1.393440
       Atomic Center  103 is at   1.706280 -4.923030 -0.791880
       Atomic Center  104 is at   1.204750 -4.982640 -2.478500
       Atomic Center  105 is at  -0.008160 -5.086300 -1.206620
 --------------------------------------------------------
       Center         ----  Spin Dipole Couplings  ----
                      3XX-RR        3YY-RR        3ZZ-RR
 --------------------------------------------------------
     1   Atom        0.173541     -3.197642      3.024101
     2   Atom        0.039384     -0.077682      0.038298
     3   Atom        0.039384     -0.077682      0.038298
     4   Atom        0.011847     -0.044224      0.032377
     5   Atom        0.016193     -0.006116     -0.010076
     6   Atom        0.002204     -0.000338     -0.001865
     7   Atom        0.001176      0.001983     -0.003159
     8   Atom        0.000802     -0.004731      0.003929
     9   Atom        0.002637      0.000495     -0.003132
    10   Atom        0.006933     -0.007462      0.000529
    11   Atom        0.006933     -0.007462      0.000529
    12   Atom        0.002637      0.000495     -0.003132
    13   Atom        0.000802     -0.004731      0.003929
    14   Atom        0.001176      0.001983     -0.003159
    15   Atom        0.002204     -0.000338     -0.001865
    16   Atom        0.016193     -0.006116     -0.010076
    17   Atom       -0.009337      0.012469     -0.003131
    18   Atom       -0.009337      0.012469     -0.003131
    19   Atom        0.000547     -0.000044     -0.000503
    20   Atom        0.000117      0.000444     -0.000561
    21   Atom        0.000995     -0.000352     -0.000643
    22   Atom        0.000180     -0.000321      0.000141
    23   Atom        0.000547     -0.000044     -0.000503
    24   Atom        0.000180     -0.000321      0.000141
    25   Atom        0.000995     -0.000352     -0.000643
    26   Atom        0.000117      0.000444     -0.000561
    27   Atom       -0.003643      0.008731     -0.005088
    28   Atom       -0.006337      0.004409      0.001928
    29   Atom        0.003007     -0.000244     -0.002763
    30   Atom       -0.001046      0.001869     -0.000823
    31   Atom       -0.003773      0.009613     -0.005840
    32   Atom       -0.005920      0.005194      0.000726
    33   Atom       -0.000624      0.002445     -0.001821
    34   Atom       -0.001246      0.002010     -0.000764
    35   Atom       -0.003643      0.008731     -0.005088
    36   Atom       -0.006337      0.004409      0.001928
    37   Atom        0.003007     -0.000244     -0.002763
    38   Atom       -0.001046      0.001869     -0.000823
    39   Atom       -0.003773      0.009613     -0.005840
    40   Atom       -0.005920      0.005194      0.000726
    41   Atom       -0.000624      0.002445     -0.001821
    42   Atom       -0.001246      0.002010     -0.000764
    43   Atom        0.151642     -0.090884     -0.060758
    44   Atom       -0.000079      0.001649     -0.001570
    45   Atom        0.001619     -0.000843     -0.000776
    46   Atom        0.001619     -0.000843     -0.000776
    47   Atom       -0.000079      0.001649     -0.001570
    48   Atom       -0.002659      0.006541     -0.003882
    49   Atom       -0.002639      0.005355     -0.002716
    50   Atom       -0.002639      0.005355     -0.002716
    51   Atom       -0.002659      0.006541     -0.003882
    52   Atom        0.000091      0.000266     -0.000356
    53   Atom        0.000132      0.000519     -0.000650
    54   Atom       -0.000121      0.000667     -0.000546
    55   Atom        0.000432     -0.000088     -0.000344
    56   Atom        0.000873     -0.000365     -0.000508
    57   Atom        0.000739     -0.000182     -0.000557
    58   Atom        0.000194     -0.000058     -0.000136
    59   Atom        0.000056     -0.000081      0.000026
    60   Atom        0.000437     -0.000366     -0.000071
    61   Atom        0.000194     -0.000058     -0.000136
    62   Atom        0.000437     -0.000366     -0.000071
    63   Atom        0.000056     -0.000081      0.000026
    64   Atom        0.000432     -0.000088     -0.000344
    65   Atom        0.000739     -0.000182     -0.000557
    66   Atom        0.000873     -0.000365     -0.000508
    67   Atom        0.000091      0.000266     -0.000356
    68   Atom       -0.000121      0.000667     -0.000546
    69   Atom        0.000132      0.000519     -0.000650
    70   Atom       -0.010127     -0.002957      0.013084
    71   Atom       -0.003908      0.002557      0.001351
    72   Atom       -0.002379      0.000198      0.002181
    73   Atom        0.010025     -0.005526     -0.004499
    74   Atom        0.000990     -0.000354     -0.000636
    75   Atom        0.002778      0.000315     -0.003093
    76   Atom       -0.001125      0.002879     -0.001753
    77   Atom       -0.000978      0.001720     -0.000742
    78   Atom       -0.001970      0.003311     -0.001342
    79   Atom       -0.002913      0.003481     -0.000568
    80   Atom       -0.009268     -0.000358      0.009626
    81   Atom       -0.002825      0.001096      0.001729
    82   Atom        0.001644      0.000849     -0.002493
    83   Atom       -0.000723      0.000286      0.000437
    84   Atom        0.003339     -0.003571      0.000232
    85   Atom       -0.001943      0.003537     -0.001594
    86   Atom       -0.001225      0.002078     -0.000853
    87   Atom       -0.001327      0.003068     -0.001740
    88   Atom       -0.003908      0.002557      0.001351
    89   Atom       -0.010127     -0.002957      0.013084
    90   Atom       -0.002379      0.000198      0.002181
    91   Atom        0.010025     -0.005526     -0.004499
    92   Atom        0.002778      0.000315     -0.003093
    93   Atom        0.000990     -0.000354     -0.000636
    94   Atom       -0.001970      0.003311     -0.001342
    95   Atom       -0.000978      0.001720     -0.000742
    96   Atom       -0.001125      0.002879     -0.001753
    97   Atom       -0.009268     -0.000358      0.009626
    98   Atom       -0.002913      0.003481     -0.000568
    99   Atom       -0.002825      0.001096      0.001729
   100   Atom        0.003339     -0.003571      0.000232
   101   Atom       -0.000723      0.000286      0.000437
   102   Atom        0.001644      0.000849     -0.002493
   103   Atom       -0.001327      0.003068     -0.001740
   104   Atom       -0.001225      0.002078     -0.000853
   105   Atom       -0.001943      0.003537     -0.001594
 --------------------------------------------------------
                        XY            XZ            YZ
 --------------------------------------------------------
     1   Atom        0.000000     -0.055624      0.000000
     2   Atom       -0.019652     -0.003404     -0.008330
     3   Atom        0.019652     -0.003404      0.008330
     4   Atom        0.000000     -0.016876      0.000000
     5   Atom        0.010166      0.003121      0.000318
     6   Atom        0.008811     -0.003705      0.002308
     7   Atom        0.003580      0.002288      0.001156
     8   Atom        0.001960     -0.005070      0.000963
     9   Atom        0.001697      0.003695      0.000399
    10   Atom        0.001944     -0.003527      0.001302
    11   Atom       -0.001944     -0.003527     -0.001302
    12   Atom       -0.001697      0.003695     -0.000399
    13   Atom       -0.001960     -0.005070     -0.000963
    14   Atom       -0.003580      0.002288     -0.001156
    15   Atom       -0.008811     -0.003705     -0.002308
    16   Atom       -0.010166      0.003121     -0.000318
    17   Atom       -0.002640      0.001373      0.000604
    18   Atom        0.002640      0.001373     -0.000604
    19   Atom        0.001042      0.000484      0.000440
    20   Atom        0.000908      0.000298      0.000340
    21   Atom        0.000739      0.000207      0.000154
    22   Atom        0.000690      0.000790      0.000514
    23   Atom       -0.001042      0.000484     -0.000440
    24   Atom       -0.000690      0.000790     -0.000514
    25   Atom       -0.000739      0.000207     -0.000154
    26   Atom       -0.000908      0.000298     -0.000340
    27   Atom        0.004694      0.000243      0.004503
    28   Atom        0.002210      0.001745      0.008814
    29   Atom        0.007370      0.004150      0.002898
    30   Atom        0.001540      0.000607      0.001556
    31   Atom        0.002872     -0.000000     -0.003685
    32   Atom       -0.001083      0.000564     -0.008127
    33   Atom        0.006542     -0.004476     -0.005066
    34   Atom        0.000935     -0.000331     -0.001490
    35   Atom       -0.004694      0.000243     -0.004503
    36   Atom       -0.002210      0.001745     -0.008814
    37   Atom       -0.007370      0.004150     -0.002898
    38   Atom       -0.001540      0.000607     -0.001556
    39   Atom       -0.002872     -0.000000      0.003685
    40   Atom        0.001083      0.000564      0.008127
    41   Atom       -0.006542     -0.004476      0.005066
    42   Atom       -0.000935     -0.000331      0.001490
    43   Atom       -0.000000     -0.000356     -0.000000
    44   Atom        0.002379      0.000354      0.000534
    45   Atom        0.000799      0.001248      0.000339
    46   Atom       -0.000799      0.001248     -0.000339
    47   Atom       -0.002379      0.000354     -0.000534
    48   Atom       -0.007393     -0.002723      0.006579
    49   Atom       -0.002979      0.000022      0.000971
    50   Atom        0.002979      0.000022     -0.000971
    51   Atom        0.007393     -0.002723     -0.006579
    52   Atom        0.000611      0.000215      0.000247
    53   Atom        0.000967      0.000127      0.000131
    54   Atom        0.000898      0.000345      0.000526
    55   Atom        0.000523      0.000223      0.000150
    56   Atom        0.000515      0.000376      0.000144
    57   Atom        0.000796      0.000057      0.000052
    58   Atom        0.000506      0.000431      0.000338
    59   Atom        0.000723      0.000690      0.000710
    60   Atom        0.000538      0.000787      0.000354
    61   Atom       -0.000506      0.000431     -0.000338
    62   Atom       -0.000538      0.000787     -0.000354
    63   Atom       -0.000723      0.000690     -0.000710
    64   Atom       -0.000523      0.000223     -0.000150
    65   Atom       -0.000796      0.000057     -0.000052
    66   Atom       -0.000515      0.000376     -0.000144
    67   Atom       -0.000611      0.000215     -0.000247
    68   Atom       -0.000898      0.000345     -0.000526
    69   Atom       -0.000967      0.000127     -0.000131
    70   Atom        0.001972      0.003419      0.013113
    71   Atom       -0.001087     -0.000803      0.006296
    72   Atom        0.001313      0.001748      0.004054
    73   Atom        0.008434      0.008850      0.003373
    74   Atom        0.003121      0.002703      0.002240
    75   Atom        0.005209      0.001333      0.001055
    76   Atom        0.001815      0.000314      0.000785
    77   Atom        0.001351      0.000581      0.001625
    78   Atom        0.000568      0.000093      0.001542
    79   Atom       -0.002846      0.001652     -0.005305
    80   Atom       -0.002296      0.003213     -0.013650
    81   Atom        0.000078     -0.000201     -0.004324
    82   Atom        0.005103     -0.002203     -0.002103
    83   Atom        0.002636     -0.002518     -0.003155
    84   Atom        0.008814     -0.011170     -0.007142
    85   Atom        0.000173      0.000097     -0.001165
    86   Atom        0.000875     -0.000344     -0.001671
    87   Atom        0.001572     -0.000316     -0.000787
    88   Atom        0.001087     -0.000803     -0.006296
    89   Atom       -0.001972      0.003419     -0.013113
    90   Atom       -0.001313      0.001748     -0.004054
    91   Atom       -0.008434      0.008850     -0.003373
    92   Atom       -0.005209      0.001333     -0.001055
    93   Atom       -0.003121      0.002703     -0.002240
    94   Atom       -0.000568      0.000093     -0.001542
    95   Atom       -0.001351      0.000581     -0.001625
    96   Atom       -0.001815      0.000314     -0.000785
    97   Atom        0.002296      0.003213      0.013650
    98   Atom        0.002846      0.001652      0.005305
    99   Atom       -0.000078     -0.000201      0.004324
   100   Atom       -0.008814     -0.011170      0.007142
   101   Atom       -0.002636     -0.002518      0.003155
   102   Atom       -0.005103     -0.002203      0.002103
   103   Atom       -0.001572     -0.000316      0.000787
   104   Atom       -0.000875     -0.000344      0.001671
   105   Atom       -0.000173      0.000097      0.001165
 --------------------------------------------------------


 ---------------------------------------------------------------------------------
              Anisotropic Spin Dipole Couplings in Principal Axis System
 ---------------------------------------------------------------------------------

       Atom             a.u.   MegaHertz   Gauss  10(-4) cm-1        Axes

              Baa    -3.1976   -55.360   -19.754   -18.466 -0.0000  1.0000 -0.0000
     1 Fe(57) Bbb     0.1725     2.986     1.065     0.996  0.9998  0.0000  0.0195
              Bcc     3.0252    52.375    18.689    17.470 -0.0195  0.0000  0.9998
 
              Baa    -0.0815   -17.627    -6.290    -5.880  0.1620  0.9841  0.0730
     2 P(31)  Bbb     0.0380     8.226     2.935     2.744  0.3885 -0.1316  0.9120
              Bcc     0.0435     9.401     3.354     3.136  0.9071 -0.1194 -0.4036
 
              Baa    -0.0815   -17.627    -6.290    -5.880 -0.1620  0.9841 -0.0730
     3 P(31)  Bbb     0.0380     8.226     2.935     2.744  0.3885  0.1316  0.9120
              Bcc     0.0435     9.401     3.354     3.136  0.9071  0.1194 -0.4036
 
              Baa    -0.0442    -1.706    -0.609    -0.569 -0.0000  1.0000 -0.0000
     4 N(14)  Bbb     0.0024     0.091     0.032     0.030  0.8717  0.0000  0.4901
              Bcc     0.0419     1.615     0.576     0.539 -0.4901  0.0000  0.8717
 
              Baa    -0.0111    -1.484    -0.529    -0.495 -0.2992  0.5661  0.7681
     5 C(13)  Bbb    -0.0094    -1.258    -0.449    -0.420 -0.2182  0.7431 -0.6327
              Bcc     0.0204     2.742     0.978     0.914  0.9289  0.3569  0.0987
 
              Baa    -0.0101    -1.356    -0.484    -0.452 -0.6049  0.6534 -0.4551
     6 C(13)  Bbb     0.0001     0.015     0.005     0.005 -0.2095  0.4208  0.8826
              Bcc     0.0100     1.340     0.478     0.447  0.7682  0.6293 -0.1176
 
              Baa    -0.0042    -0.560    -0.200    -0.187 -0.4414  0.0890  0.8929
     7 C(13)  Bbb    -0.0016    -0.221    -0.079    -0.074 -0.6011  0.7095 -0.3678
              Bcc     0.0058     0.782     0.279     0.261  0.6663  0.6990  0.2597
 
              Baa    -0.0062    -0.828    -0.295    -0.276 -0.4593  0.8325 -0.3099
     8 C(13)  Bbb    -0.0015    -0.203    -0.072    -0.068  0.6561  0.5531  0.5134
              Bcc     0.0077     1.031     0.368     0.344 -0.5988 -0.0324  0.8002
 
              Baa    -0.0050    -0.666    -0.238    -0.222 -0.4494  0.0747  0.8902
     9 C(13)  Bbb    -0.0001    -0.015    -0.005    -0.005 -0.2809  0.9341 -0.2202
              Bcc     0.0051     0.681     0.243     0.227  0.8480  0.3490  0.3989
 
              Baa    -0.0081    -1.088    -0.388    -0.363 -0.1748  0.9606 -0.2162
    10 C(13)  Bbb    -0.0005    -0.065    -0.023    -0.022  0.3561  0.2664  0.8957
              Bcc     0.0086     1.153     0.412     0.385  0.9180  0.0796 -0.3886
 
              Baa    -0.0081    -1.088    -0.388    -0.363  0.1748  0.9606  0.2162
    11 C(13)  Bbb    -0.0005    -0.065    -0.023    -0.022  0.3561 -0.2664  0.8957
              Bcc     0.0086     1.153     0.412     0.385  0.9180 -0.0796 -0.3886
 
              Baa    -0.0050    -0.666    -0.238    -0.222 -0.4494 -0.0747  0.8902
    12 C(13)  Bbb    -0.0001    -0.015    -0.005    -0.005  0.2809  0.9341  0.2202
              Bcc     0.0051     0.681     0.243     0.227  0.8480 -0.3490  0.3989
 
              Baa    -0.0062    -0.828    -0.295    -0.276  0.4593  0.8325  0.3099
    13 C(13)  Bbb    -0.0015    -0.203    -0.072    -0.068  0.6561 -0.5531  0.5134
              Bcc     0.0077     1.031     0.368     0.344 -0.5988  0.0324  0.8002
 
              Baa    -0.0042    -0.560    -0.200    -0.187 -0.4414 -0.0890  0.8929
    14 C(13)  Bbb    -0.0016    -0.221    -0.079    -0.074  0.6011  0.7095  0.3678
              Bcc     0.0058     0.782     0.279     0.261 -0.6663  0.6990 -0.2597
 
              Baa    -0.0101    -1.356    -0.484    -0.452  0.6049  0.6534  0.4551
    15 C(13)  Bbb     0.0001     0.015     0.005     0.005 -0.2095 -0.4208  0.8826
              Bcc     0.0100     1.340     0.478     0.447  0.7682 -0.6293 -0.1176
 
              Baa    -0.0111    -1.484    -0.529    -0.495 -0.2992 -0.5661  0.7681
    16 C(13)  Bbb    -0.0094    -1.258    -0.449    -0.420  0.2182  0.7431  0.6327
              Bcc     0.0204     2.742     0.978     0.914  0.9289 -0.3569  0.0987
 
              Baa    -0.0100    -1.336    -0.477    -0.446  0.9712  0.1199 -0.2060
    17 C(13)  Bbb    -0.0028    -0.381    -0.136    -0.127  0.2078 -0.0027  0.9782
              Bcc     0.0128     1.717     0.613     0.573 -0.1167  0.9928  0.0276
 
              Baa    -0.0100    -1.336    -0.477    -0.446  0.9712 -0.1199 -0.2060
    18 C(13)  Bbb    -0.0028    -0.381    -0.136    -0.127  0.2078  0.0027  0.9782
              Bcc     0.0128     1.717     0.613     0.573  0.1167  0.9928 -0.0276
 
              Baa    -0.0009    -0.115    -0.041    -0.038 -0.4785  0.8055 -0.3497
    19 C(13)  Bbb    -0.0007    -0.092    -0.033    -0.031 -0.4476  0.1188  0.8863
              Bcc     0.0015     0.207     0.074     0.069  0.7554  0.5806  0.3037
 
              Baa    -0.0007    -0.090    -0.032    -0.030 -0.3882  0.0357  0.9209
    20 C(13)  Bbb    -0.0006    -0.086    -0.031    -0.029  0.6778 -0.6660  0.3115
              Bcc     0.0013     0.176     0.063     0.059  0.6244  0.7451  0.2343
 
              Baa    -0.0007    -0.098    -0.035    -0.033  0.2126 -0.6908  0.6911
    21 C(13)  Bbb    -0.0006    -0.083    -0.030    -0.028 -0.3655  0.5996  0.7119
              Bcc     0.0014     0.182     0.065     0.061  0.9062  0.4040  0.1250
 
              Baa    -0.0008    -0.108    -0.039    -0.036 -0.6188  0.7801  0.0924
    22 C(13)  Bbb    -0.0006    -0.077    -0.027    -0.026 -0.4306 -0.4352  0.7907
              Bcc     0.0014     0.185     0.066     0.062  0.6570  0.4495  0.6053
 
              Baa    -0.0009    -0.115    -0.041    -0.038  0.4785  0.8055  0.3497
    23 C(13)  Bbb    -0.0007    -0.092    -0.033    -0.031 -0.4476 -0.1188  0.8863
              Bcc     0.0015     0.207     0.074     0.069  0.7554 -0.5806  0.3037
 
              Baa    -0.0008    -0.108    -0.039    -0.036  0.6188  0.7801 -0.0924
    24 C(13)  Bbb    -0.0006    -0.077    -0.027    -0.026 -0.4306  0.4352  0.7907
              Bcc     0.0014     0.185     0.066     0.062  0.6570 -0.4495  0.6053
 
              Baa    -0.0007    -0.098    -0.035    -0.033  0.2126  0.6908  0.6911
    25 C(13)  Bbb    -0.0006    -0.083    -0.030    -0.028 -0.3655 -0.5996  0.7119
              Bcc     0.0014     0.182     0.065     0.061  0.9062 -0.4040  0.1250
 
              Baa    -0.0007    -0.090    -0.032    -0.030 -0.3882 -0.0357  0.9209
    26 C(13)  Bbb    -0.0006    -0.086    -0.031    -0.029  0.6778  0.6660  0.3115
              Bcc     0.0013     0.176     0.063     0.059 -0.6244  0.7451 -0.2343
 
              Baa    -0.0070    -0.939    -0.335    -0.313  0.4564 -0.3681  0.8100
    27 C(13)  Bbb    -0.0045    -0.598    -0.214    -0.200  0.8409 -0.1190 -0.5279
              Bcc     0.0115     1.537     0.549     0.513  0.2908  0.9221  0.2552
 
              Baa    -0.0068    -0.909    -0.324    -0.303  0.9813 -0.1926 -0.0016
    28 C(13)  Bbb    -0.0057    -0.767    -0.274    -0.256 -0.1236 -0.6361  0.7617
              Bcc     0.0125     1.676     0.598     0.559  0.1478  0.7472  0.6480
 
              Baa    -0.0062    -0.836    -0.298    -0.279 -0.6626  0.7253  0.1869
    29 C(13)  Bbb    -0.0046    -0.614    -0.219    -0.205 -0.1444 -0.3685  0.9183
              Bcc     0.0108     1.450     0.518     0.484  0.7349  0.5815  0.3489
 
              Baa    -0.0017    -0.231    -0.082    -0.077  0.8550 -0.4656  0.2283
    30 C(13)  Bbb    -0.0015    -0.201    -0.072    -0.067 -0.3719 -0.2437  0.8957
              Bcc     0.0032     0.432     0.154     0.144  0.3614  0.8508  0.3815
 
              Baa    -0.0068    -0.916    -0.327    -0.306 -0.2365  0.2517  0.9385
    31 C(13)  Bbb    -0.0042    -0.557    -0.199    -0.186  0.9535 -0.1256  0.2740
              Bcc     0.0110     1.473     0.526     0.491  0.1868  0.9596 -0.2103
 
              Baa    -0.0061    -0.815    -0.291    -0.272  0.9441  0.2477  0.2177
    32 C(13)  Bbb    -0.0054    -0.724    -0.258    -0.242 -0.3224  0.5553  0.7666
              Bcc     0.0115     1.539     0.549     0.514 -0.0690  0.7939 -0.6041
 
              Baa    -0.0060    -0.801    -0.286    -0.267  0.8241 -0.3980  0.4030
    33 C(13)  Bbb    -0.0052    -0.694    -0.248    -0.232 -0.0938  0.6058  0.7901
              Bcc     0.0111     1.496     0.534     0.499  0.5586  0.6889 -0.4620
 
              Baa    -0.0015    -0.204    -0.073    -0.068  0.8307 -0.3882 -0.3991
    34 C(13)  Bbb    -0.0014    -0.184    -0.066    -0.061  0.5058  0.2267  0.8323
              Bcc     0.0029     0.388     0.139     0.130  0.2326  0.8933 -0.3847
 
              Baa    -0.0070    -0.939    -0.335    -0.313  0.4564  0.3681  0.8100
    35 C(13)  Bbb    -0.0045    -0.598    -0.214    -0.200  0.8409  0.1190 -0.5279
              Bcc     0.0115     1.537     0.549     0.513 -0.2908  0.9221 -0.2552
 
              Baa    -0.0068    -0.909    -0.324    -0.303  0.9813  0.1926 -0.0016
    36 C(13)  Bbb    -0.0057    -0.767    -0.274    -0.256 -0.1236  0.6361  0.7617
              Bcc     0.0125     1.676     0.598     0.559 -0.1478  0.7472 -0.6480
 
              Baa    -0.0062    -0.836    -0.298    -0.279  0.6626  0.7253 -0.1869
    37 C(13)  Bbb    -0.0046    -0.614    -0.219    -0.205 -0.1444  0.3685  0.9183
              Bcc     0.0108     1.450     0.518     0.484  0.7349 -0.5815  0.3489
 
              Baa    -0.0017    -0.231    -0.082    -0.077  0.8550  0.4656  0.2283
    38 C(13)  Bbb    -0.0015    -0.201    -0.072    -0.067 -0.3719  0.2437  0.8957
              Bcc     0.0032     0.432     0.154     0.144 -0.3614  0.8508 -0.3815
 
              Baa    -0.0068    -0.916    -0.327    -0.306 -0.2365 -0.2517  0.9385
    39 C(13)  Bbb    -0.0042    -0.557    -0.199    -0.186  0.9535  0.1256  0.2740
              Bcc     0.0110     1.473     0.526     0.491 -0.1868  0.9596  0.2103
 
              Baa    -0.0061    -0.815    -0.291    -0.272  0.9441 -0.2477  0.2177
    40 C(13)  Bbb    -0.0054    -0.724    -0.258    -0.242 -0.3224 -0.5553  0.7666
              Bcc     0.0115     1.539     0.549     0.514  0.0690  0.7939  0.6041
 
              Baa    -0.0060    -0.801    -0.286    -0.267  0.8241  0.3980  0.4030
    41 C(13)  Bbb    -0.0052    -0.694    -0.248    -0.232 -0.0938 -0.6058  0.7901
              Bcc     0.0111     1.496     0.534     0.499 -0.5586  0.6889  0.4620
 
              Baa    -0.0015    -0.204    -0.073    -0.068  0.8307  0.3882 -0.3991
    42 C(13)  Bbb    -0.0014    -0.184    -0.066    -0.061  0.5058 -0.2267  0.8323
              Bcc     0.0029     0.388     0.139     0.130 -0.2326  0.8933  0.3847
 
              Baa    -0.0909   -48.491   -17.303   -16.175  0.0000  1.0000  0.0000
    43 H(1)   Bbb    -0.0608   -32.418   -11.567   -10.813  0.0017 -0.0000  1.0000
              Bcc     0.1516    80.909    28.870    26.988  1.0000 -0.0000 -0.0017
 
              Baa    -0.0017    -0.933    -0.333    -0.311  0.7953 -0.5830  0.1662
    44 H(1)   Bbb    -0.0016    -0.880    -0.314    -0.294 -0.2096 -0.0071  0.9778
              Bcc     0.0034     1.813     0.647     0.605  0.5688  0.8125  0.1279
 
              Baa    -0.0013    -0.698    -0.249    -0.233 -0.3933  0.0052  0.9194
    45 H(1)   Bbb    -0.0011    -0.574    -0.205    -0.192 -0.2367  0.9657 -0.1067
              Bcc     0.0024     1.272     0.454     0.424  0.8884  0.2596  0.3786
 
              Baa    -0.0013    -0.698    -0.249    -0.233 -0.3933 -0.0052  0.9194
    46 H(1)   Bbb    -0.0011    -0.574    -0.205    -0.192  0.2367  0.9657  0.1067
              Bcc     0.0024     1.272     0.454     0.424  0.8884 -0.2596  0.3786
 
              Baa    -0.0017    -0.933    -0.333    -0.311  0.7953  0.5830  0.1662
    47 H(1)   Bbb    -0.0016    -0.880    -0.314    -0.294 -0.2096  0.0071  0.9778
              Bcc     0.0034     1.813     0.647     0.605 -0.5688  0.8125 -0.1279
 
              Baa    -0.0075    -4.012    -1.432    -1.338 -0.4971 -0.5682  0.6557
    48 H(1)   Bbb    -0.0060    -3.206    -1.144    -1.069  0.7499  0.0988  0.6542
              Bcc     0.0135     7.218     2.575     2.408 -0.4365  0.8169  0.3770
 
              Baa    -0.0037    -1.995    -0.712    -0.666  0.8871  0.3255 -0.3274
    49 H(1)   Bbb    -0.0027    -1.438    -0.513    -0.479  0.3419  0.0132  0.9396
              Bcc     0.0064     3.433     1.225     1.145 -0.3102  0.9455  0.0996
 
              Baa    -0.0037    -1.995    -0.712    -0.666  0.8871 -0.3255 -0.3274
    50 H(1)   Bbb    -0.0027    -1.438    -0.513    -0.479  0.3419 -0.0132  0.9396
              Bcc     0.0064     3.433     1.225     1.145  0.3102  0.9455 -0.0996
 
              Baa    -0.0075    -4.012    -1.432    -1.338 -0.4971  0.5682  0.6557
    51 H(1)   Bbb    -0.0060    -3.206    -1.144    -1.069  0.7499 -0.0988  0.6542
              Bcc     0.0135     7.218     2.575     2.408  0.4365  0.8169 -0.3770
 
              Baa    -0.0004    -0.237    -0.084    -0.079 -0.2643 -0.1067  0.9585
    52 H(1)   Bbb    -0.0004    -0.234    -0.084    -0.078  0.7273 -0.6747  0.1254
              Bcc     0.0009     0.471     0.168     0.157  0.6334  0.7303  0.2559
 
              Baa    -0.0007    -0.362    -0.129    -0.121 -0.5299  0.3427  0.7757
    53 H(1)   Bbb    -0.0006    -0.346    -0.124    -0.116  0.5657 -0.5387  0.6244
              Bcc     0.0013     0.709     0.253     0.236  0.6318  0.7697  0.0916
 
              Baa    -0.0007    -0.397    -0.142    -0.132 -0.1977 -0.2295  0.9530
    54 H(1)   Bbb    -0.0007    -0.378    -0.135    -0.126  0.8299 -0.5566  0.0381
              Bcc     0.0015     0.774     0.276     0.258  0.5217  0.7984  0.3005
 
              Baa    -0.0004    -0.224    -0.080    -0.075 -0.3141  0.7562 -0.5740
    55 H(1)   Bbb    -0.0004    -0.213    -0.076    -0.071 -0.4659  0.4041  0.7872
              Bcc     0.0008     0.437     0.156     0.146  0.8272  0.5147  0.2254
 
              Baa    -0.0006    -0.324    -0.115    -0.108 -0.1734 -0.2059  0.9631
    56 H(1)   Bbb    -0.0006    -0.294    -0.105    -0.098 -0.3679  0.9206  0.1306
              Bcc     0.0012     0.617     0.220     0.206  0.9136  0.3317  0.2354
 
              Baa    -0.0006    -0.344    -0.123    -0.115 -0.4841  0.8546 -0.1881
    57 H(1)   Bbb    -0.0006    -0.297    -0.106    -0.099 -0.1306  0.1420  0.9812
              Bcc     0.0012     0.641     0.229     0.214  0.8652  0.4996  0.0428
 
              Baa    -0.0005    -0.242    -0.086    -0.081 -0.5970  0.8010 -0.0437
    58 H(1)   Bbb    -0.0004    -0.230    -0.082    -0.077 -0.4027 -0.2522  0.8799
              Bcc     0.0009     0.471     0.168     0.157  0.6938  0.5429  0.4732
 
              Baa    -0.0008    -0.409    -0.146    -0.137 -0.3908  0.8280 -0.4021
    59 H(1)   Bbb    -0.0006    -0.346    -0.124    -0.116 -0.7053  0.0114  0.7089
              Bcc     0.0014     0.756     0.270     0.252  0.5915  0.5605  0.5795
 
              Baa    -0.0007    -0.353    -0.126    -0.118  0.6510 -0.5143 -0.5583
    60 H(1)   Bbb    -0.0006    -0.321    -0.115    -0.107  0.0739  0.7750 -0.6277
              Bcc     0.0013     0.674     0.241     0.225  0.7555  0.3673  0.5425
 
              Baa    -0.0005    -0.242    -0.086    -0.081  0.5970  0.8010  0.0437
    61 H(1)   Bbb    -0.0004    -0.230    -0.082    -0.077 -0.4027  0.2522  0.8799
              Bcc     0.0009     0.471     0.168     0.157  0.6938 -0.5429  0.4732
 
              Baa    -0.0007    -0.353    -0.126    -0.118  0.6510  0.5143 -0.5583
    62 H(1)   Bbb    -0.0006    -0.321    -0.115    -0.107 -0.0739  0.7750  0.6277
              Bcc     0.0013     0.674     0.241     0.225  0.7555 -0.3673  0.5425
 
              Baa    -0.0008    -0.409    -0.146    -0.137  0.3908  0.8280  0.4021
    63 H(1)   Bbb    -0.0006    -0.346    -0.124    -0.116 -0.7053 -0.0114  0.7089
              Bcc     0.0014     0.756     0.270     0.252  0.5915 -0.5605  0.5795
 
              Baa    -0.0004    -0.224    -0.080    -0.075  0.3141  0.7562  0.5740
    64 H(1)   Bbb    -0.0004    -0.213    -0.076    -0.071 -0.4659 -0.4041  0.7872
              Bcc     0.0008     0.437     0.156     0.146  0.8272 -0.5147  0.2254
 
              Baa    -0.0006    -0.344    -0.123    -0.115  0.4841  0.8546  0.1881
    65 H(1)   Bbb    -0.0006    -0.297    -0.106    -0.099 -0.1306 -0.1420  0.9812
              Bcc     0.0012     0.641     0.229     0.214  0.8652 -0.4996  0.0428
 
              Baa    -0.0006    -0.324    -0.115    -0.108 -0.1734  0.2059  0.9631
    66 H(1)   Bbb    -0.0006    -0.294    -0.105    -0.098  0.3679  0.9206 -0.1306
              Bcc     0.0012     0.617     0.220     0.206  0.9136 -0.3317  0.2354
 
              Baa    -0.0004    -0.237    -0.084    -0.079 -0.2643  0.1067  0.9585
    67 H(1)   Bbb    -0.0004    -0.234    -0.084    -0.078  0.7273  0.6747  0.1254
              Bcc     0.0009     0.471     0.168     0.157 -0.6334  0.7303 -0.2559
 
              Baa    -0.0007    -0.397    -0.142    -0.132 -0.1977  0.2295  0.9530
    68 H(1)   Bbb    -0.0007    -0.378    -0.135    -0.126  0.8299  0.5566  0.0381
              Bcc     0.0015     0.774     0.276     0.258 -0.5217  0.7984 -0.3005
 
              Baa    -0.0007    -0.362    -0.129    -0.121 -0.5299 -0.3427  0.7757
    69 H(1)   Bbb    -0.0006    -0.346    -0.124    -0.116  0.5657  0.5387  0.6244
              Bcc     0.0013     0.709     0.253     0.236 -0.6318  0.7697 -0.0916
 
              Baa    -0.0106    -5.675    -2.025    -1.893  0.9815 -0.1880 -0.0375
    70 H(1)   Bbb    -0.0103    -5.496    -1.961    -1.833  0.1444  0.8539 -0.5000
              Bcc     0.0209    11.171     3.986     3.726  0.1261  0.4853  0.8652
 
              Baa    -0.0044    -2.359    -0.842    -0.787 -0.3458 -0.6577  0.6692
    71 H(1)   Bbb    -0.0040    -2.137    -0.762    -0.713  0.9320 -0.1584  0.3260
              Bcc     0.0084     4.496     1.604     1.500 -0.1084  0.7365  0.6677
 
              Baa    -0.0030    -1.609    -0.574    -0.537 -0.5637 -0.5486  0.6175
    72 H(1)   Bbb    -0.0029    -1.559    -0.556    -0.520  0.7859 -0.5863  0.1965
              Bcc     0.0059     3.168     1.130     1.057  0.2542  0.5961  0.7616
 
              Baa    -0.0094    -5.028    -1.794    -1.677 -0.5109  0.7635  0.3951
    73 H(1)   Bbb    -0.0083    -4.440    -1.584    -1.481 -0.1554 -0.5340  0.8311
              Bcc     0.0177     9.468     3.378     3.158  0.8455  0.3632  0.3914
 
              Baa    -0.0029    -1.537    -0.548    -0.513 -0.5601  0.8164 -0.1404
    74 H(1)   Bbb    -0.0026    -1.405    -0.501    -0.469 -0.4816 -0.1830  0.8571
              Bcc     0.0055     2.942     1.050     0.981  0.6740  0.5477  0.4957
 
              Baa    -0.0038    -2.031    -0.725    -0.677 -0.6205  0.7842  0.0001
    75 H(1)   Bbb    -0.0034    -1.800    -0.642    -0.601 -0.1280 -0.1013  0.9866
              Bcc     0.0072     3.831     1.367     1.278  0.7737  0.6122  0.1632
 
              Baa    -0.0019    -1.006    -0.359    -0.336 -0.2110 -0.0801  0.9742
    76 H(1)   Bbb    -0.0018    -0.973    -0.347    -0.325  0.9104 -0.3790  0.1660
              Bcc     0.0037     1.979     0.706     0.660  0.3560  0.9219  0.1529
 
              Baa    -0.0016    -0.859    -0.306    -0.286  0.5810 -0.5350  0.6134
    77 H(1)   Bbb    -0.0015    -0.775    -0.276    -0.258  0.7388  0.0303 -0.6733
              Bcc     0.0031     1.633     0.583     0.545  0.3416  0.8443  0.4129
 
              Baa    -0.0020    -1.093    -0.390    -0.365  0.9516 -0.1737  0.2535
    78 H(1)   Bbb    -0.0018    -0.952    -0.340    -0.317 -0.2914 -0.2473  0.9241
              Bcc     0.0038     2.045     0.730     0.682  0.0979  0.9532  0.2859
 
              Baa    -0.0044    -2.321    -0.828    -0.774  0.4487  0.6073  0.6557
    79 H(1)   Bbb    -0.0038    -2.007    -0.716    -0.669  0.8469 -0.0547 -0.5289
              Bcc     0.0081     4.328     1.544     1.444 -0.2854  0.7926 -0.5388
 
              Baa    -0.0099    -5.290    -1.888    -1.765  0.3415  0.7959  0.4998
    80 H(1)   Bbb    -0.0098    -5.224    -1.864    -1.743  0.9301 -0.2098 -0.3014
              Bcc     0.0197    10.514     3.752     3.507  0.1350 -0.5678  0.8120
 
              Baa    -0.0030    -1.584    -0.565    -0.528  0.4978  0.6274  0.5988
    81 H(1)   Bbb    -0.0028    -1.486    -0.530    -0.496  0.8670 -0.3786 -0.3241
              Bcc     0.0058     3.069     1.095     1.024 -0.0234 -0.6805  0.7324
 
              Baa    -0.0039    -2.069    -0.738    -0.690 -0.6538  0.7501  0.0992
    82 H(1)   Bbb    -0.0034    -1.832    -0.654    -0.611  0.2869  0.1245  0.9498
              Bcc     0.0073     3.901     1.392     1.301  0.7002  0.6495 -0.2966
 
              Baa    -0.0029    -1.557    -0.555    -0.519 -0.6469  0.7344  0.2053
    83 H(1)   Bbb    -0.0027    -1.438    -0.513    -0.480  0.5771  0.2954  0.7614
              Bcc     0.0056     2.995     1.069     0.999 -0.4986 -0.6110  0.6149
 
              Baa    -0.0098    -5.214    -1.860    -1.739  0.7239 -0.5517  0.4143
    84 H(1)   Bbb    -0.0090    -4.821    -1.720    -1.608  0.1332  0.7010  0.7007
              Bcc     0.0188    10.035     3.581     3.347  0.6770  0.4520 -0.5809
 
              Baa    -0.0020    -1.087    -0.388    -0.363  0.8235 -0.1404 -0.5496
    85 H(1)   Bbb    -0.0018    -0.937    -0.334    -0.312  0.5667  0.1594  0.8084
              Bcc     0.0038     2.024     0.722     0.675  0.0258  0.9772 -0.2109
 
              Baa    -0.0016    -0.865    -0.309    -0.289 -0.2334  0.4455  0.8643
    86 H(1)   Bbb    -0.0014    -0.758    -0.270    -0.253  0.9484 -0.0921  0.3036
              Bcc     0.0030     1.623     0.579     0.541  0.2148  0.8905 -0.4010
 
              Baa    -0.0019    -1.022    -0.365    -0.341  0.5938 -0.0607  0.8023
    87 H(1)   Bbb    -0.0018    -0.954    -0.340    -0.318  0.7452 -0.3347 -0.5768
              Bcc     0.0037     1.976     0.705     0.659  0.3035  0.9404 -0.1535
 
              Baa    -0.0044    -2.359    -0.842    -0.787 -0.3458  0.6577  0.6692
    88 H(1)   Bbb    -0.0040    -2.137    -0.762    -0.713  0.9320  0.1584  0.3260
              Bcc     0.0084     4.496     1.604     1.500  0.1084  0.7365 -0.6677
 
              Baa    -0.0106    -5.675    -2.025    -1.893  0.9815  0.1880 -0.0375
    89 H(1)   Bbb    -0.0103    -5.496    -1.961    -1.833 -0.1444  0.8539  0.5000
              Bcc     0.0209    11.171     3.986     3.726  0.1261 -0.4853  0.8652
 
              Baa    -0.0030    -1.609    -0.574    -0.537 -0.5637  0.5486  0.6175
    90 H(1)   Bbb    -0.0029    -1.559    -0.556    -0.520  0.7859  0.5863  0.1965
              Bcc     0.0059     3.168     1.130     1.057  0.2542 -0.5961  0.7616
 
              Baa    -0.0094    -5.028    -1.794    -1.677  0.5109  0.7635 -0.3951
    91 H(1)   Bbb    -0.0083    -4.440    -1.584    -1.481 -0.1554  0.5340  0.8311
              Bcc     0.0177     9.468     3.378     3.158  0.8455 -0.3632  0.3914
 
              Baa    -0.0038    -2.031    -0.725    -0.677  0.6205  0.7842 -0.0001
    92 H(1)   Bbb    -0.0034    -1.800    -0.642    -0.601 -0.1280  0.1013  0.9866
              Bcc     0.0072     3.831     1.367     1.278  0.7737 -0.6122  0.1632
 
              Baa    -0.0029    -1.537    -0.548    -0.513  0.5601  0.8164  0.1404
    93 H(1)   Bbb    -0.0026    -1.405    -0.501    -0.469 -0.4816  0.1830  0.8571
              Bcc     0.0055     2.942     1.050     0.981  0.6740 -0.5477  0.4957
 
              Baa    -0.0020    -1.093    -0.390    -0.365  0.9516  0.1737  0.2535
    94 H(1)   Bbb    -0.0018    -0.952    -0.340    -0.317 -0.2914  0.2473  0.9241
              Bcc     0.0038     2.045     0.730     0.682 -0.0979  0.9532 -0.2859
 
              Baa    -0.0016    -0.859    -0.306    -0.286  0.5810  0.5350  0.6134
    95 H(1)   Bbb    -0.0015    -0.775    -0.276    -0.258  0.7388 -0.0303 -0.6733
              Bcc     0.0031     1.633     0.583     0.545 -0.3416  0.8443 -0.4129
 
              Baa    -0.0019    -1.006    -0.359    -0.336 -0.2110  0.0801  0.9742
    96 H(1)   Bbb    -0.0018    -0.973    -0.347    -0.325  0.9104  0.3790  0.1660
              Bcc     0.0037     1.979     0.706     0.660 -0.3560  0.9219 -0.1529
 
              Baa    -0.0099    -5.290    -1.888    -1.765 -0.3415  0.7959 -0.4998
    97 H(1)   Bbb    -0.0098    -5.224    -1.864    -1.743  0.9301  0.2098 -0.3014
              Bcc     0.0197    10.514     3.752     3.507  0.1350  0.5678  0.8120
 
              Baa    -0.0044    -2.321    -0.828    -0.774  0.4487 -0.6073  0.6557
    98 H(1)   Bbb    -0.0038    -2.007    -0.716    -0.669  0.8469  0.0547 -0.5289
              Bcc     0.0081     4.328     1.544     1.444  0.2854  0.7926  0.5388
 
              Baa    -0.0030    -1.584    -0.565    -0.528 -0.4978  0.6274 -0.5988
    99 H(1)   Bbb    -0.0028    -1.486    -0.530    -0.496  0.8670  0.3786 -0.3241
              Bcc     0.0058     3.069     1.095     1.024 -0.0234  0.6805  0.7324
 
              Baa    -0.0098    -5.214    -1.860    -1.739  0.7239  0.5517  0.4143
   100 H(1)   Bbb    -0.0090    -4.821    -1.720    -1.608 -0.1332  0.7010 -0.7007
              Bcc     0.0188    10.035     3.581     3.347  0.6770 -0.4520 -0.5809
 
              Baa    -0.0029    -1.557    -0.555    -0.519  0.6469  0.7344 -0.2053
   101 H(1)   Bbb    -0.0027    -1.438    -0.513    -0.480  0.5771 -0.2954  0.7614
              Bcc     0.0056     2.995     1.069     0.999 -0.4986  0.6110  0.6149
 
              Baa    -0.0039    -2.069    -0.738    -0.690  0.6538  0.7501 -0.0992
   102 H(1)   Bbb    -0.0034    -1.832    -0.654    -0.611  0.2869 -0.1245  0.9498
              Bcc     0.0073     3.901     1.392     1.301  0.7002 -0.6495 -0.2966
 
              Baa    -0.0019    -1.022    -0.365    -0.341  0.5938  0.0607  0.8023
   103 H(1)   Bbb    -0.0018    -0.954    -0.340    -0.318  0.7452  0.3347 -0.5768
              Bcc     0.0037     1.976     0.705     0.659 -0.3035  0.9404  0.1535
 
              Baa    -0.0016    -0.865    -0.309    -0.289 -0.2334 -0.4455  0.8643
   104 H(1)   Bbb    -0.0014    -0.758    -0.270    -0.253  0.9484  0.0921  0.3036
              Bcc     0.0030     1.623     0.579     0.541 -0.2148  0.8905  0.4010
 
              Baa    -0.0020    -1.087    -0.388    -0.363  0.8235  0.1404 -0.5496
   105 H(1)   Bbb    -0.0018    -0.937    -0.334    -0.312  0.5667 -0.1594  0.8084
              Bcc     0.0038     2.024     0.722     0.675 -0.0258  0.9772  0.2109
 

 ---------------------------------------------------------------------------------

 Leave Link  602 at Mon Jul 22 20:58:16 2019, MaxMem=  2147483648 cpu:              11.0 elap:               0.9
 (Enter /apps/gaussian/16/A.03/g16/l9999.exe)
 1\1\GINC-NODE-SW-137\SP\UTPSSh\Gen\C38H63Fe1N1P2\ES2037\22-Jul-2019\0\
 \#p prop=epr TPSSH/Gen scf=(tight) integral=(grid=ultrafine) Symmetry=
 None\\L2\\0,3\Fe,0,0.,0.,0.\P,0,0.21545,2.27554,0.08741\P,0,0.21545,-2
 .27554,0.08741\N,0,-2.01928,0.,-0.23098\C,0,-2.77544,-1.10878,-0.63527
 \C,0,-2.56495,-2.48524,-0.41042\C,0,-3.4809,-3.38823,-0.95139\C,0,-4.6
 1526,-3.01363,-1.6984\C,0,-4.83392,-1.65101,-1.8799\C,0,-3.93864,-0.71
 86,-1.35237\C,0,-3.93864,0.7186,-1.35237\C,0,-4.83392,1.65101,-1.8799\
 C,0,-4.61526,3.01363,-1.6984\C,0,-3.4809,3.38823,-0.95139\C,0,-2.56495
 ,2.48524,-0.41042\C,0,-2.77544,1.10878,-0.63527\C,0,-1.45033,3.01426,0
 .45334\C,0,-1.45033,-3.01426,0.45334\C,0,-5.5765,-4.07112,-2.27313\C,0
 ,-5.10992,-5.4979,-1.9203\C,0,-6.99417,-3.85935,-1.69292\C,0,-5.6531,-
 3.96469,-3.80983\C,0,-5.5765,4.07112,-2.27313\C,0,-5.6531,3.96469,-3.8
 0983\C,0,-6.99417,3.85935,-1.69292\C,0,-5.10992,5.4979,-1.9203\C,0,1.2
 5694,2.90266,1.5762\C,0,0.51742,2.43218,2.84568\C,0,2.65597,2.26203,1.
 58582\C,0,1.39787,4.43437,1.63482\C,0,0.79072,3.07297,-1.55837\C,0,-0.
 28186,2.72238,-2.60889\C,0,2.1201,2.45246,-2.02115\C,0,0.9293,4.60339,
 -1.48825\C,0,1.25694,-2.90266,1.5762\C,0,0.51742,-2.43218,2.84568\C,0,
 2.65597,-2.26203,1.58582\C,0,1.39787,-4.43437,1.63482\C,0,0.79072,-3.0
 7297,-1.55837\C,0,-0.28186,-2.72238,-2.60889\C,0,2.1201,-2.45246,-2.02
 115\C,0,0.9293,-4.60339,-1.48825\H,0,1.57026,0.,0.\H,0,-3.30318,-4.440
 77,-0.7616\H,0,-5.70112,-1.29706,-2.42497\H,0,-5.70112,1.29706,-2.4249
 7\H,0,-3.30318,4.44077,-0.7616\H,0,-1.64364,2.73015,1.49155\H,0,-1.433
 08,4.10448,0.4183\H,0,-1.43308,-4.10448,0.4183\H,0,-1.64364,-2.73015,1
 .49155\H,0,-5.80116,-6.23359,-2.33991\H,0,-5.07334,-5.65628,-0.84\H,0,
 -4.1164,-5.70234,-2.32727\H,0,-7.68919,-4.60272,-2.09688\H,0,-7.37887,
 -2.86725,-1.94132\H,0,-6.99514,-3.95327,-0.60398\H,0,-6.34002,-4.71785
 ,-4.20533\H,0,-4.67444,-4.12973,-4.26807\H,0,-6.01423,-2.98468,-4.1284
 9\H,0,-6.34002,4.71785,-4.20533\H,0,-6.01423,2.98468,-4.12849\H,0,-4.6
 7444,4.12973,-4.26807\H,0,-7.68919,4.60272,-2.09688\H,0,-6.99514,3.953
 27,-0.60398\H,0,-7.37887,2.86725,-1.94132\H,0,-5.80116,6.23359,-2.3399
 1\H,0,-4.1164,5.70234,-2.32727\H,0,-5.07334,5.65628,-0.84\H,0,0.38221,
 1.34891,2.85878\H,0,-0.4574,2.89943,2.95812\H,0,1.1086,2.69966,3.72165
 \H,0,2.60366,1.17663,1.51112\H,0,3.15175,2.51671,2.52481\H,0,3.28573,2
 .62549,0.77826\H,0,1.96169,4.83461,0.79132\H,0,1.94005,4.70724,2.54617
 \H,0,0.43171,4.94021,1.67127\H,0,-1.24576,3.16841,-2.38185\H,0,-0.4216
 2,1.64235,-2.70311\H,0,0.04322,3.09931,-3.58082\H,0,2.95864,2.742,-1.3
 9344\H,0,2.33409,2.80235,-3.0336\H,0,2.07293,1.36254,-2.04384\H,0,-0.0
 0816,5.0863,-1.20662\H,0,1.20475,4.98264,-2.4785\H,0,1.70628,4.92303,-
 0.79188\H,0,-0.4574,-2.89943,2.95812\H,0,0.38221,-1.34891,2.85878\H,0,
 1.1086,-2.69966,3.72165\H,0,2.60366,-1.17663,1.51112\H,0,3.28573,-2.62
 549,0.77826\H,0,3.15175,-2.51671,2.52481\H,0,0.43171,-4.94021,1.67127\
 H,0,1.94005,-4.70724,2.54617\H,0,1.96169,-4.83461,0.79132\H,0,-0.42162
 ,-1.64235,-2.70311\H,0,-1.24576,-3.16841,-2.38185\H,0,0.04322,-3.09931
 ,-3.58082\H,0,2.07293,-1.36254,-2.04384\H,0,2.33409,-2.80235,-3.0336\H
 ,0,2.95864,-2.742,-1.39344\H,0,1.70628,-4.92303,-0.79188\H,0,1.20475,-
 4.98264,-2.4785\H,0,-0.00816,-5.0863,-1.20662\\Version=ES64L-G16RevA.0
 3\HF=-3487.9958457\S2=2.044397\S2-1=0.\S2A=2.0008\RMSD=5.621e-09\Dipol
 e=1.7668194,0.,0.63828\Quadrupole=-12.0208523,10.7841063,1.236746,0.,-
 0.6958298,0.\PG=Unknown\\@


 HE THAT RISETH LATE MUST TROT ALL DAY.

                  -- BENJAMIN FRANKLIN
 Job cpu time:       2 days  6 hours 28 minutes 52.4 seconds.
 Elapsed time:       0 days  3 hours 24 minutes 41.6 seconds.
 File lengths (MBytes):  RWF=   2681 Int=      0 D2E=      0 Chk=    225 Scr=      1
 Normal termination of Gaussian 16 at Mon Jul 22 20:58:18 2019.
